LAMMPS (10 Feb 2015)
# ---- initialize simulations
clear
units metal
dimension 3
boundary p p p
atom_style charge
atom_modify map array
# ---- create atoms
read_data lammps.structure
  triclinic box = (0 0 0) to (16.0127 16.0127 16.0127) with tilt (0 0 0)
  1 by 1 by 1 MPI processor grid
  reading atoms ...
  216 atoms
# ---- define interatomic potential
include potential.mod
mass 1 24.305
mass 2 15.999

group magnesium type 1
108 atoms in group magnesium
group oxygen type 2
108 atoms in group oxygen

set group magnesium charge 2.1335249445945137
  108 settings made for charge
set group oxygen charge -2.1335249445945137
  108 settings made for charge

variable R_cut equal 10.0

pair_style buck/coul/long ${R_cut}
pair_style buck/coul/long 10
pair_coeff 1 1 0.0 0.5 0.0 ${R_cut}
pair_coeff 1 1 0.0 0.5 0.0 10
pair_coeff 1 2 849.3091599660628 0.3025359510724032 0.0 ${R_cut}
pair_coeff 1 2 849.3091599660628 0.3025359510724032 0.0 10
pair_coeff 2 2 23489.37888205462 0.3558498499632836 76.7448985072756 ${R_cut}
pair_coeff 2 2 23489.37888205462 0.3558498499632836 76.7448985072756 10

kspace_style pppm 1.0e-5

neighbor 1.0 bin
neigh_modify every 1 delay 0 check yes

# ---- define settings
compute eng all pe/atom
compute eatoms all reduce sum c_eng

# ---- run minimization
reset_timestep 0
thermo 1
thermo_style custom step pe lx ly lz xy xz yz press pxx pyy pzz pxy pxz pyz c_eatoms
min_style cg
minimize 1e-20 1e-20 1000 100000
PPPM initialization ...
  G vector (1/distance) = 0.342337
  grid = 24 24 24
  stencil order = 5
  estimated absolute RMS force accuracy = 0.000109259
  estimated relative force accuracy = 7.58759e-06
  using double precision FFTs
  3d grid and FFT values/proc = 29791 13824
Neighbor list info ...
  1 neighbor list requests
  update every 1 steps, delay 0 steps, check yes
  master list distance cutoff = 11
Memory usage per processor = 7.83223 Mbytes
Step PotEng Lx Ly Lz Xy Xz Yz Press Pxx Pyy Pzz Pxy Pxz Pyz eatoms 
       0   -4027.5769      16.0127      16.0127      16.0127            0            0            0    115601.23    115601.23    115601.23    115601.23    -768.8619    -768.8619    -768.8619   -4027.5769 
       1    -4090.018      16.0127      16.0127      16.0127            0            0            0    75793.188    75793.188    75793.188    75793.188   -645.72456   -645.72456   -645.72456    -4090.018 
       2   -4128.6762      16.0127      16.0127      16.0127            0            0            0    51827.686    51827.686    51827.686    51827.686   -404.59347   -404.59347   -404.59347   -4128.6762 
       3   -4152.5361      16.0127      16.0127      16.0127            0            0            0    38824.513    38824.513    38824.513    38824.513   -80.483208   -80.483208   -80.483208   -4152.5361 
       4   -4168.3417      16.0127      16.0127      16.0127            0            0            0    32830.487    32830.487    32830.487    32830.487    393.18453    393.18453    393.18453   -4168.3417 
       5   -4178.8187      16.0127      16.0127      16.0127            0            0            0    30167.874    30167.874    30167.874    30167.874    786.66539    786.66539    786.66539   -4178.8187 
       6    -4184.796      16.0127      16.0127      16.0127            0            0            0    29970.967    29970.967    29970.967    29970.967    968.01957    968.01957    968.01957    -4184.796 
       7   -4190.2694      16.0127      16.0127      16.0127            0            0            0    31535.384    31535.384    31535.384    31535.384    1034.6056    1034.6056    1034.6056   -4190.2694 
       8   -4195.9712      16.0127      16.0127      16.0127            0            0            0    35125.488    35125.488    35125.488    35125.488     1484.251     1484.251     1484.251   -4195.9712 
       9   -4203.7844      16.0127      16.0127      16.0127            0            0            0    41127.109    41127.109    41127.109    41127.109    1416.9973    1416.9973    1416.9973   -4203.7844 
      10    -4213.736      16.0127      16.0127      16.0127            0            0            0    50022.268    50022.268    50022.268    50022.268    2131.4622    2131.4622    2131.4622    -4213.736 
      11     -4226.64      16.0127      16.0127      16.0127            0            0            0    62211.319    62211.319    62211.319    62211.319    2190.4861    2190.4861    2190.4861     -4226.64 
      12   -4240.5271      16.0127      16.0127      16.0127            0            0            0    75421.984    75421.984    75421.984    75421.984    3058.0442    3058.0442    3058.0442   -4240.5271 
      13   -4255.3302      16.0127      16.0127      16.0127            0            0            0    90257.101    90257.101    90257.101    90257.101    4231.4899    4231.4899    4231.4899   -4255.3302 
      14   -4272.2582      16.0127      16.0127      16.0127            0            0            0    108459.96    108459.96    108459.96    108459.96    5409.9218    5409.9218    5409.9218   -4272.2582 
      15   -4292.1617      16.0127      16.0127      16.0127            0            0            0    130330.87    130330.87    130330.87    130330.87    7237.5266    7237.5266    7237.5266   -4292.1617 
      16   -4311.4852      16.0127      16.0127      16.0127            0            0            0    152482.41    152482.41    152482.41    152482.41    7428.8343    7428.8343    7428.8343   -4311.4852 
      17   -4330.6069      16.0127      16.0127      16.0127            0            0            0    173546.97    173546.97    173546.97    173546.97    9963.0545    9963.0545    9963.0545   -4330.6069 
      18   -4347.1455      16.0127      16.0127      16.0127            0            0            0    190729.72    190729.72    190729.72    190729.72    10310.446    10310.446    10310.446   -4347.1455 
      19   -4361.5752      16.0127      16.0127      16.0127            0            0            0    208366.76    208366.76    208366.76    208366.76     11827.54     11827.54     11827.54   -4361.5752 
      20    -4374.994      16.0127      16.0127      16.0127            0            0            0    223064.46    223064.46    223064.46    223064.46    11056.978    11056.978    11056.978    -4374.994 
      21   -4386.6415      16.0127      16.0127      16.0127            0            0            0    240680.96    240680.96    240680.96    240680.96    12391.893    12391.893    12391.893   -4386.6415 
      22   -4397.5082      16.0127      16.0127      16.0127            0            0            0    250093.63    250093.63    250093.63    250093.63    11804.265    11804.265    11804.265   -4397.5082 
      23    -4408.509      16.0127      16.0127      16.0127            0            0            0    266429.18    266429.18    266429.18    266429.18    13445.675    13445.675    13445.675    -4408.509 
      24   -4420.4281      16.0127      16.0127      16.0127            0            0            0    272603.49    272603.49    272603.49    272603.49    13404.523    13404.523    13404.523   -4420.4281 
      25     -4432.38      16.0127      16.0127      16.0127            0            0            0    287163.06    287163.06    287163.06    287163.06    14110.034    14110.034    14110.034     -4432.38 
      26   -4439.0008      16.0127      16.0127      16.0127            0            0            0    288985.45    288985.45    288985.45    288985.45    14260.989    14260.989    14260.989   -4439.0008 
      27   -4444.4041      16.0127      16.0127      16.0127            0            0            0    293215.09    293215.09    293215.09    293215.09    14141.215    14141.215    14141.215   -4444.4041 
      28   -4449.4099      16.0127      16.0127      16.0127            0            0            0     295097.3     295097.3     295097.3     295097.3      14329.1      14329.1      14329.1   -4449.4099 
      29   -4454.4457      16.0127      16.0127      16.0127            0            0            0    300515.04    300515.04    300515.04    300515.04    14095.742    14095.742    14095.742   -4454.4457 
      30   -4460.3781      16.0127      16.0127      16.0127            0            0            0    301923.48    301923.48    301923.48    301923.48    14220.388    14220.388    14220.388   -4460.3781 
      31   -4467.5659      16.0127      16.0127      16.0127            0            0            0    310421.22    310421.22    310421.22    310421.22    12948.897    12948.897    12948.897   -4467.5659 
      32   -4474.0827      16.0127      16.0127      16.0127            0            0            0    312630.74    312630.74    312630.74    312630.74    12626.608    12626.609    12626.609   -4474.0827 
      33   -4479.6143      16.0127      16.0127      16.0127            0            0            0    315128.31    315128.31    315128.31    315128.31    12172.409    12172.409    12172.409   -4479.6143 
      34   -4484.0208      16.0127      16.0127      16.0127            0            0            0     321907.2    321907.19    321907.19    321907.21     10238.59    10238.585    10238.587   -4484.0208 
      35   -4489.9578      16.0127      16.0127      16.0127            0            0            0    328868.33    328868.32    328868.32    328868.34    10242.184    10242.181    10242.182   -4489.9578 
      36   -4491.6752      16.0127      16.0127      16.0127            0            0            0    325058.94    325058.94    325058.95    325058.94    11788.159    11788.159    11788.159   -4491.6752 
      37   -4494.4143      16.0127      16.0127      16.0127            0            0            0    322774.43    322774.43    322774.43    322774.43    11302.092     11302.09    11302.092   -4494.4143 
      38   -4498.8297      16.0127      16.0127      16.0127            0            0            0    326956.85    326956.86    326956.86    326956.84     12145.71    12145.717    12145.715   -4498.8297 
      39   -4500.9515      16.0127      16.0127      16.0127            0            0            0     332409.4     332409.4    332409.39    332409.41    11184.583    11184.585    11184.586   -4500.9515 
      40   -4502.6313      16.0127      16.0127      16.0127            0            0            0    334818.39    334818.39    334818.39     334818.4    10070.197    10070.198    10070.202   -4502.6313 
      41   -4505.4782      16.0127      16.0127      16.0127            0            0            0    336045.98    336045.97    336045.97    336045.98    9907.0258    9907.0163    9907.0113   -4505.4782 
      42   -4507.9017      16.0127      16.0127      16.0127            0            0            0    332750.51    332750.51    332750.51    332750.52    10062.607    10062.606    10062.609   -4507.9017 
      43    -4509.661      16.0127      16.0127      16.0127            0            0            0     325718.3    325718.31    325718.31    325718.29    11566.408    11566.412    11566.415    -4509.661 
      44   -4512.2048      16.0127      16.0127      16.0127            0            0            0    323882.58    323882.59    323882.59    323882.57    13017.025    13017.031    13017.026   -4512.2048 
      45   -4514.6128      16.0127      16.0127      16.0127            0            0            0    329985.59    329985.59    329985.59    329985.59    12026.374    12026.379    12026.371   -4514.6128 
      46   -4516.3987      16.0127      16.0127      16.0127            0            0            0    330680.66    330680.65    330680.66    330680.65    12771.698    12771.701    12771.694   -4516.3987 
      47    -4518.743      16.0127      16.0127      16.0127            0            0            0    325967.18    325967.19    325967.18    325967.18    15362.418    15362.423    15362.418    -4518.743 
      48   -4520.9377      16.0127      16.0127      16.0127            0            0            0    326075.56    326075.56    326075.56    326075.55    15914.395    15914.399    15914.389   -4520.9377 
      49   -4522.9399      16.0127      16.0127      16.0127            0            0            0    325916.59     325916.6     325916.6    325916.58    16232.632    16232.637    16232.631   -4522.9399 
      50   -4525.2997      16.0127      16.0127      16.0127            0            0            0    328108.34    328108.34    328108.34    328108.33    16835.947    16835.954    16835.946   -4525.2997 
      51   -4525.9906      16.0127      16.0127      16.0127            0            0            0    328426.54    328426.55    328426.54    328426.53    18015.069    18015.072    18015.068   -4525.9906 
      52   -4527.8984      16.0127      16.0127      16.0127            0            0            0     326447.4    326447.41     326447.4    326447.37    19660.421    19660.421    19660.423   -4527.8984 
      53   -4530.0011      16.0127      16.0127      16.0127            0            0            0    330839.82    330839.84    330839.83     330839.8    18402.694      18402.7    18402.695   -4530.0011 
      54   -4530.8001      16.0127      16.0127      16.0127            0            0            0     332976.7    332976.72    332976.71    332976.67    19764.326    19764.344    19764.333   -4530.8001 
      55   -4531.5948      16.0127      16.0127      16.0127            0            0            0    332814.41    332814.43    332814.43    332814.36    19460.982    19461.001    19460.993   -4531.5948 
      56   -4532.6492      16.0127      16.0127      16.0127            0            0            0     334001.3    334001.35    334001.33    334001.23    20144.419    20144.439    20144.422   -4532.6492 
      57   -4533.3553      16.0127      16.0127      16.0127            0            0            0    333974.65    333974.72    333974.69    333974.54    20316.986    20317.007    20316.987   -4533.3553 
      58   -4533.8361      16.0127      16.0127      16.0127            0            0            0    334837.33    334837.43    334837.38    334837.19    18948.935    18948.949    18948.939   -4533.8361 
      59   -4534.2859      16.0127      16.0127      16.0127            0            0            0    332494.61    332494.75    332494.69    332494.39    18742.947    18742.994    18742.953   -4534.2859 
      60   -4534.8318      16.0127      16.0127      16.0127            0            0            0    330374.27    330374.48    330374.38    330373.95    18540.729    18540.771    18540.722   -4534.8318 
      61   -4535.2838      16.0127      16.0127      16.0127            0            0            0    328333.18    328333.48    328333.35    328332.71    19817.096    19817.173     19817.12   -4535.2838 
      62   -4535.6994      16.0127      16.0127      16.0127            0            0            0     328453.3    328453.73    328453.54    328452.63    20459.069    20459.158    20459.054   -4535.6994 
      63    -4536.186      16.0127      16.0127      16.0127            0            0            0    327060.48    327061.11    327060.84     327059.5    21088.179     21088.36    21088.237    -4536.186 
      64    -4536.733      16.0127      16.0127      16.0127            0            0            0    328731.12    328731.99    328731.62    328729.76    21826.584    21826.791    21826.612    -4536.733 
      65    -4537.413      16.0127      16.0127      16.0127            0            0            0    328781.97    328783.24    328782.71    328779.97    22323.903    22324.221    22323.911    -4537.413 
      66   -4538.2513      16.0127      16.0127      16.0127            0            0            0    330799.59    330801.44    330800.66    330796.68    23779.825    23780.192    23779.681   -4538.2513 
      67   -4539.1852      16.0127      16.0127      16.0127            0            0            0    329926.07    329928.64    329927.61    329921.97    24775.065    24775.686    24775.064   -4539.1852 
      68   -4540.2194      16.0127      16.0127      16.0127            0            0            0    332735.02     332738.8    332737.24    332729.03    24054.923    24055.404    24054.037   -4540.2194 
      69   -4541.2756      16.0127      16.0127      16.0127            0            0            0     332898.3    332903.24    332901.29    332890.37    23474.765    23475.632    23473.656   -4541.2756 
      70   -4541.9021      16.0127      16.0127      16.0127            0            0            0     330104.8     330110.8    330108.65    330094.95    23789.519    23790.869    23788.418   -4541.9021 
      71   -4542.5038      16.0127      16.0127      16.0127            0            0            0     329325.1    329333.54    329330.51    329311.24    23673.371    23675.259    23671.006   -4542.5038 
      72   -4543.6518      16.0127      16.0127      16.0127            0            0            0    329410.01    329421.98    329417.84    329390.21    22733.944    22738.989    22731.917   -4543.6518 
      73    -4544.333      16.0127      16.0127      16.0127            0            0            0    330655.19    330668.98    330664.14    330632.44    22705.419    22711.174    22702.415    -4544.333 
      74   -4544.7853      16.0127      16.0127      16.0127            0            0            0    331551.57    331569.06    331562.55     331523.1    23147.813    23158.486    23145.828   -4544.7853 
      75   -4545.5595      16.0127      16.0127      16.0127            0            0            0    332344.49    332369.17    332358.84    332305.46    24209.649    24227.857    24205.469   -4545.5595 
      76   -4546.8375      16.0127      16.0127      16.0127            0            0            0     332972.4       333002    332985.73    332929.47     24967.95    25007.282    24970.241   -4546.8375 
      77   -4547.8976      16.0127      16.0127      16.0127            0            0            0    333217.55    333246.87    333224.34    333181.46    24728.932    24768.195    24718.023   -4547.8976 
      78   -4548.9731      16.0127      16.0127      16.0127            0            0            0    333096.06    333117.53    333084.13    333086.53    23726.203    23799.299    23723.502   -4548.9731 
      79     -4550.85      16.0127      16.0127      16.0127            0            0            0    333126.15    333137.86    333088.47    333152.13    24517.413    24645.245    24535.934     -4550.85 
      80   -4552.8778      16.0127      16.0127      16.0127            0            0            0    334507.72    334490.54     334421.3    334611.34    26469.038    26701.433    26559.633   -4552.8778 
      81   -4554.9548      16.0127      16.0127      16.0127            0            0            0    337813.56    337748.34    337677.65     338014.7    26119.756    26521.246    26359.056   -4554.9548 
      82    -4557.583      16.0127      16.0127      16.0127            0            0            0     339426.5    339343.76     339275.6    339660.13    24490.415    24964.541    24768.127    -4557.583 
      83   -4559.2966      16.0127      16.0127      16.0127            0            0            0    340678.73    340551.81    340473.04    341011.34    23527.497    24119.995    23855.779   -4559.2966 
      84    -4561.104      16.0127      16.0127      16.0127            0            0            0     342212.6    342008.81    342000.72    342628.29    23256.206    24019.571    23765.145    -4561.104 
      85   -4562.5371      16.0127      16.0127      16.0127            0            0            0    343381.16    343117.68    343145.82    343879.99     22116.99    23213.271    22867.625   -4562.5371 
      86   -4563.9624      16.0127      16.0127      16.0127            0            0            0       343952    343599.49    343712.93    344543.59    20167.901    21685.942    21206.721   -4563.9624 
      87   -4565.1394      16.0127      16.0127      16.0127            0            0            0    347459.09    347122.26    347392.41     347862.6    19775.118    21692.161    21035.744   -4565.1394 
      88    -4566.479      16.0127      16.0127      16.0127            0            0            0    349156.08    348925.02    349383.68    349159.53    18643.394    20827.291      19821.3    -4566.479 
      89   -4568.0449      16.0127      16.0127      16.0127            0            0            0    353346.93    353161.88    353811.46    353067.46     18549.74    20908.754    19489.585   -4568.0449 
      90   -4569.5714      16.0127      16.0127      16.0127            0            0            0    355381.91    355386.61    356017.51    354741.61    16627.789    19145.808    17423.339   -4569.5714 
      91   -4571.1606      16.0127      16.0127      16.0127            0            0            0    357123.59    357399.65    357930.21    356040.92    15707.958    18054.555    15978.479   -4571.1606 
      92   -4572.2769      16.0127      16.0127      16.0127            0            0            0    356971.27    357394.33    357775.74    355743.75    16539.629    18907.435    16646.281   -4572.2769 
      93   -4573.8667      16.0127      16.0127      16.0127            0            0            0    358010.34    358659.81    358794.99    356576.23    16598.692    18824.779    16515.098   -4573.8667 
      94   -4575.0397      16.0127      16.0127      16.0127            0            0            0    358653.07    359194.01    359331.03    357434.18    15632.022     17525.37    15239.103   -4575.0397 
      95   -4576.5468      16.0127      16.0127      16.0127            0            0            0    360587.55    361204.68    361268.92    359289.06    15573.607    16362.722    13751.296   -4576.5468 
      96   -4578.2284      16.0127      16.0127      16.0127            0            0            0    361163.97     361811.7    361997.65    359682.56    15766.931    17514.638     14854.27   -4578.2284 
      97   -4579.6714      16.0127      16.0127      16.0127            0            0            0    361463.29    362286.48    362599.49    359503.88    16170.602     16614.85    13873.583   -4579.6714 
      98   -4581.2287      16.0127      16.0127      16.0127            0            0            0    362820.42    362669.06    363811.99     361980.2    15268.934    15801.086    12379.616   -4581.2287 
      99   -4582.7936      16.0127      16.0127      16.0127            0            0            0    363339.87    363315.95    364513.98     362189.7    15970.679    14933.371    11556.658   -4582.7936 
     100   -4584.6219      16.0127      16.0127      16.0127            0            0            0    363587.46    363992.65    364727.94    362041.77     16827.06     16464.28    14361.502   -4584.6219 
     101    -4586.245      16.0127      16.0127      16.0127            0            0            0    364123.97    364198.65    365379.41    362793.84    16953.504    16054.294    14627.594    -4586.245 
     102   -4587.6926      16.0127      16.0127      16.0127            0            0            0    365490.72    364474.34    366757.26    365240.55    16210.196    14725.267    12481.656   -4587.6926 
     103   -4589.1388      16.0127      16.0127      16.0127            0            0            0    365951.52    364667.28    366876.78    366310.51    16176.654    14217.382     12665.13   -4589.1388 
     104   -4590.4554      16.0127      16.0127      16.0127            0            0            0    365365.45    364575.74    365990.86    365529.77    17247.319     15480.96    15827.978   -4590.4554 
     105   -4591.6834      16.0127      16.0127      16.0127            0            0            0    365411.99    364472.71    365771.26    365991.99    17392.082    15591.485    15863.233   -4591.6834 
     106   -4592.9799      16.0127      16.0127      16.0127            0            0            0    366279.33    364447.27     366587.7    367803.03    16350.318    14421.533     14028.03   -4592.9799 
     107   -4594.1255      16.0127      16.0127      16.0127            0            0            0    366503.19    364774.29    366368.04    368367.25    16070.023    14562.562    14046.222   -4594.1255 
     108   -4595.0519      16.0127      16.0127      16.0127            0            0            0     366545.4     365295.3    366270.92    368069.99    16816.035    16204.792    16361.078   -4595.0519 
     109   -4596.1556      16.0127      16.0127      16.0127            0            0            0    366810.91    365771.21    366333.22    368328.29    16401.617    16529.296     16223.79   -4596.1556 
     110   -4596.9181      16.0127      16.0127      16.0127            0            0            0    367560.89    365780.18    367194.43    369708.06    15519.896      15999.9    15445.715   -4596.9181 
     111   -4598.2817      16.0127      16.0127      16.0127            0            0            0     367521.7    366320.45    366357.77    369886.87    14780.947     16433.88    14756.063   -4598.2817 
     112   -4599.7407      16.0127      16.0127      16.0127            0            0            0    369043.57    367303.08    368540.97    371286.65    15587.295    17871.785    17619.303   -4599.7407 
     113   -4600.9144      16.0127      16.0127      16.0127            0            0            0     369388.4    367842.21     368858.6    371464.39    15634.849    17756.234    17348.247   -4600.9144 
     114   -4601.8631      16.0127      16.0127      16.0127            0            0            0    369576.01    367512.04    368903.43    372312.57    13976.797    16373.756      15684.9   -4601.8631 
     115   -4602.6789      16.0127      16.0127      16.0127            0            0            0    371059.28     368606.3     370763.4    373808.15    13913.897    16177.812    16190.195   -4602.6789 
     116   -4603.5081      16.0127      16.0127      16.0127            0            0            0    371593.31    369377.17    371720.37    373682.38    15276.906    16894.254    17540.868   -4603.5081 
     117   -4604.2928      16.0127      16.0127      16.0127            0            0            0    371796.55    369475.68    372249.84    373664.13    15206.459    16446.712    17334.981   -4604.2928 
     118   -4605.1974      16.0127      16.0127      16.0127            0            0            0    373565.71    370781.27    374540.67    375375.18    15018.156    15818.284    18125.902   -4605.1974 
     119   -4605.8596      16.0127      16.0127      16.0127            0            0            0     374303.5    371836.48    375368.32    375705.69    14908.267    14997.063    17503.751   -4605.8596 
     120   -4606.4723      16.0127      16.0127      16.0127            0            0            0    374611.72    371843.45    376223.49    375768.23    16046.817    15208.416    17720.581   -4606.4723 
     121   -4607.1186      16.0127      16.0127      16.0127            0            0            0    375067.91    371762.92    376950.28    376490.53    16409.336    15248.778    18449.569   -4607.1186 
     122    -4607.766      16.0127      16.0127      16.0127            0            0            0    375175.76    371979.54    376702.71    376845.01    15280.175    14303.694    17753.008    -4607.766 
     123   -4608.4087      16.0127      16.0127      16.0127            0            0            0    376836.91    372846.09    379020.83    378643.81    15126.556    13293.607     17487.35   -4608.4087 
     124    -4609.473      16.0127      16.0127      16.0127            0            0            0    376925.14    372414.32    379287.06    379074.03    14999.834    12467.005    16755.636    -4609.473 
     125   -4609.7336      16.0127      16.0127      16.0127            0            0            0    376323.79    371767.46    378363.03    378840.88    14743.187     13291.84    17498.796   -4609.7336 
     126   -4610.1833      16.0127      16.0127      16.0127            0            0            0    377829.67     372534.6     380868.5    380085.91    14959.767    14049.653    18014.664   -4610.1833 
     127   -4610.9528      16.0127      16.0127      16.0127            0            0            0    378593.85    373119.74    381875.12    380786.68    12243.221    13348.579    15711.096   -4610.9528 
     128   -4611.2708      16.0127      16.0127      16.0127            0            0            0    378492.33    373154.39    381351.58    380971.02     10809.33    12795.454    15203.415   -4611.2708 
     129   -4611.5642      16.0127      16.0127      16.0127            0            0            0    379068.67    374210.98    381947.99    381047.04    11529.253    12379.013    14981.176   -4611.5642 
     130   -4612.0748      16.0127      16.0127      16.0127            0            0            0    379251.74    374349.09    381788.83     381617.3    10493.802     12160.75    14712.756   -4612.0748 
     131   -4612.7533      16.0127      16.0127      16.0127            0            0            0    381468.84    376317.95    384349.17    383739.39    9502.4046    13193.567     15107.33   -4612.7533 
     132   -4613.2621      16.0127      16.0127      16.0127            0            0            0    382763.41    377933.96     386004.1    384352.16    9036.4879    13392.693    13934.145   -4613.2621 
     133   -4613.6645      16.0127      16.0127      16.0127            0            0            0    383374.27    377766.94    387146.13    385209.74    7338.1078    13104.131    12781.251   -4613.6645 
     134   -4614.1392      16.0127      16.0127      16.0127            0            0            0    384765.26       378485    389952.12    385858.67    7308.6221    13404.357    13205.171   -4614.1392 
     135    -4614.682      16.0127      16.0127      16.0127            0            0            0     385561.5    379239.61    391186.87    386258.02    6513.0894    13163.988    13394.171    -4614.682 
     136   -4615.2134      16.0127      16.0127      16.0127            0            0            0    386906.51    380417.55    392327.31    387974.66    5434.8284    12930.419    12996.864   -4615.2134 
     137   -4615.7462      16.0127      16.0127      16.0127            0            0            0    387965.34    381908.71    393511.67    388475.64    4850.7731    12139.119     11622.02   -4615.7462 
     138   -4616.3204      16.0127      16.0127      16.0127            0            0            0    388776.97    381952.77    394612.61    389765.53    4607.6535     11527.37    11416.952   -4616.3204 
     139   -4616.7569      16.0127      16.0127      16.0127            0            0            0    388707.76    381531.35    394445.99    390145.95    3328.2248    11841.577    10683.106   -4616.7569 
     140   -4617.2119      16.0127      16.0127      16.0127            0            0            0    389184.85    380497.45    395865.44    391191.65     2201.634     10558.12    10324.864   -4617.2119 
     141   -4617.6211      16.0127      16.0127      16.0127            0            0            0    389547.02    380866.58    396157.33    391617.14    2430.3647    9587.1487    8096.3403   -4617.6211 
     142   -4618.0922      16.0127      16.0127      16.0127            0            0            0    390693.08    382218.36    397001.59    392859.28    2755.6311    10124.012     8717.813   -4618.0922 
     143   -4618.5356      16.0127      16.0127      16.0127            0            0            0    390738.93    381979.36    396817.68    393419.74      3951.66     9565.701    9350.3581   -4618.5356 
     144   -4618.9183      16.0127      16.0127      16.0127            0            0            0    391724.95    382622.77    398155.95    394396.12    5023.3236      10028.5    9613.3387   -4618.9183 
     145   -4619.2939      16.0127      16.0127      16.0127            0            0            0     392717.6    383857.47    398490.16    395805.16    4796.3332    9695.1579    8418.9352   -4619.2939 
     146   -4619.6482      16.0127      16.0127      16.0127            0            0            0    393718.55     384274.8    400097.79    396783.06    5706.3564    9674.7744    7892.8771   -4619.6482 
     147   -4620.0492      16.0127      16.0127      16.0127            0            0            0    393759.28       383815    400323.18    397139.66    6454.2202    10404.085    7593.4579   -4620.0492 
     148   -4620.3075      16.0127      16.0127      16.0127            0            0            0    394549.09    384463.48    401520.77       397663     7101.945    10273.444    8204.0616   -4620.3075 
     149   -4620.5387      16.0127      16.0127      16.0127            0            0            0    394819.97    385425.23    401399.76    397634.93    9142.8022    9819.8848    7068.6364   -4620.5387 
     150   -4620.7694      16.0127      16.0127      16.0127            0            0            0    395201.17    385374.77    401935.17    398293.58    9671.6507    9744.2156    7684.8238   -4620.7694 
     151   -4621.1797      16.0127      16.0127      16.0127            0            0            0    395017.85    384642.76    401684.81    398725.99    10242.815    9037.4774    7856.8857   -4621.1797 
     152   -4621.6375      16.0127      16.0127      16.0127            0            0            0     395189.3    384431.02    402809.23    398327.67    12503.961    9166.1773     7618.882   -4621.6375 
     153    -4622.158      16.0127      16.0127      16.0127            0            0            0    395170.03    384303.26    402848.52    398358.31    12717.358    9566.1344    7669.9093    -4622.158 
     154   -4622.7268      16.0127      16.0127      16.0127            0            0            0    395367.46    384505.32    402141.29    399455.77    11516.654    10074.375    7544.6892   -4622.7268 
     155   -4623.2806      16.0127      16.0127      16.0127            0            0            0    396069.25    385270.33    402466.12    400471.29     12477.49    9965.9873    6991.9007   -4623.2806 
     156   -4623.8049      16.0127      16.0127      16.0127            0            0            0    396377.27     385879.4    402995.85    400256.56    14694.394    9554.9625    6682.6708   -4623.8049 
     157   -4624.2331      16.0127      16.0127      16.0127            0            0            0       396707    386444.37    402332.88    401343.77    14410.729    9304.7878    7235.3476   -4624.2331 
     158     -4624.58      16.0127      16.0127      16.0127            0            0            0    396667.37    386359.13    402007.06    401635.92    14342.217    9639.1909    6615.8225     -4624.58 
     159   -4624.9455      16.0127      16.0127      16.0127            0            0            0    396312.89    386932.65    400346.07    401659.95    14719.604    9453.3192    6689.6529   -4624.9455 
     160   -4625.3165      16.0127      16.0127      16.0127            0            0            0    396174.27    386768.65    399904.65    401849.51    16285.461    9355.6592    7802.5416   -4625.3165 
     161    -4625.494      16.0127      16.0127      16.0127            0            0            0     395797.7    386588.52    399261.75    401542.84    16710.592    9106.6469    7617.1133    -4625.494 
     162   -4625.6916      16.0127      16.0127      16.0127            0            0            0    396461.41    387171.75    399502.97    402709.52    16397.042    8968.9329    7704.0713   -4625.6916 
     163    -4625.833      16.0127      16.0127      16.0127            0            0            0     397140.5    387793.42    399629.21    403998.86    17305.348    8476.6673    6814.9941    -4625.833 
     164   -4625.9536      16.0127      16.0127      16.0127            0            0            0    397359.75    387723.85    400824.13    403531.26    17111.673     8285.143    7163.8216   -4625.9536 
     165   -4626.0821      16.0127      16.0127      16.0127            0            0            0    397617.47    387877.97    401060.07    403914.37    17100.194    7630.8583    6837.5791   -4626.0821 
     166   -4626.1935      16.0127      16.0127      16.0127            0            0            0    397976.95    387895.87    401638.52    404396.45    16923.953    7099.0371    6495.7736   -4626.1935 
     167   -4626.2934      16.0127      16.0127      16.0127            0            0            0    398113.89    388002.11    401981.02    404358.55    17439.981    6626.1119    6122.7436   -4626.2934 
     168   -4626.4176      16.0127      16.0127      16.0127            0            0            0    397908.56    387319.62    402285.15    404120.91    17351.107      6242.48    6130.7326   -4626.4176 
     169   -4626.5508      16.0127      16.0127      16.0127            0            0            0     397913.8     386885.3    402523.53    404332.57    17864.755    5546.1129    6126.5193   -4626.5508 
     170   -4626.6918      16.0127      16.0127      16.0127            0            0            0    398415.76    387485.07    403180.55    404581.68     17922.71    5420.6075    5931.7044   -4626.6918 
     171    -4626.816      16.0127      16.0127      16.0127            0            0            0    399097.31    388166.03    403852.66    405273.25    18511.472    4858.9286     5841.158    -4626.816 
     172   -4626.9188      16.0127      16.0127      16.0127            0            0            0    399171.05    388137.59    403974.79    405400.77    18517.027    4824.3194    6228.3802   -4626.9188 
     173   -4627.0455      16.0127      16.0127      16.0127            0            0            0    399542.82    389286.19    404244.61    405097.66    18912.669    5026.3904    6344.2861   -4627.0455 
     174   -4627.2017      16.0127      16.0127      16.0127            0            0            0    399685.11     389726.3    404357.69    404971.34    19035.993    5542.8365    6500.1282   -4627.2017 
     175   -4627.3958      16.0127      16.0127      16.0127            0            0            0    399858.98    389956.41    404225.11    405395.42    19002.048    5919.4868    7477.2585   -4627.3958 
     176   -4627.6881      16.0127      16.0127      16.0127            0            0            0    399473.64    390125.95    403852.23    404442.74    18371.441    6675.3467    7727.0331   -4627.6881 
     177   -4628.0645      16.0127      16.0127      16.0127            0            0            0     399277.6    390425.75    403334.99    404072.07    19051.005    6710.2513    7494.0096   -4628.0645 
     178    -4628.461      16.0127      16.0127      16.0127            0            0            0    399515.29    390698.34    403218.39    404629.16    19069.164    6854.0455    7937.0065    -4628.461 
     179   -4628.6651      16.0127      16.0127      16.0127            0            0            0    399665.71    390519.96    404057.72    404419.46    17923.123    7197.3193    8131.8965   -4628.6651 
     180   -4628.9359      16.0127      16.0127      16.0127            0            0            0    400088.83    391289.65     404310.3    404666.54    18266.367      7118.12    8023.0083   -4628.9359 
     181   -4629.1601      16.0127      16.0127      16.0127            0            0            0    400010.79    391537.16    404478.31    404016.91    18511.701    7223.4796    8069.1307   -4629.1601 
     182   -4629.2721      16.0127      16.0127      16.0127            0            0            0    400237.97    391926.51    404777.04    404010.36    18753.298    6737.5538    8425.6556   -4629.2721 
     183    -4629.415      16.0127      16.0127      16.0127            0            0            0    400417.96    391545.97    405705.81    404002.11    17895.226    6423.8679    8775.2814    -4629.415 
     184   -4629.5088      16.0127      16.0127      16.0127            0            0            0    400329.98    391373.45    406151.86    403464.63    17948.426    5977.9028    8337.3134   -4629.5088 
     185   -4629.6001      16.0127      16.0127      16.0127            0            0            0    400137.39    391466.44    405762.54    403183.19    18028.651    5493.8447    8302.8856   -4629.6001 
     186   -4629.7381      16.0127      16.0127      16.0127            0            0            0    399436.08     390680.8     405563.9    402063.54    17104.605    5315.4158    8962.7738   -4629.7381 
     187   -4629.8778      16.0127      16.0127      16.0127            0            0            0    399344.86    390233.01    406117.33    401684.25    17446.735    4276.9138    9380.1468   -4629.8778 
     188   -4630.0209      16.0127      16.0127      16.0127            0            0            0     399478.5    390287.89    406158.85    401988.76    17678.851    3753.1115    9365.2227   -4630.0209 
     189   -4630.2482      16.0127      16.0127      16.0127            0            0            0     399480.7    390188.51    406504.35    401749.25    17630.594    3186.9558     9424.698   -4630.2482 
     190    -4630.418      16.0127      16.0127      16.0127            0            0            0    399447.75     390205.3    406699.14     401438.8    17183.763    2999.0163    10165.381    -4630.418 
     191    -4630.568      16.0127      16.0127      16.0127            0            0            0    399490.38    390189.76    406651.24    401630.15    16264.356     3846.644    10118.325    -4630.568 
     192   -4630.7463      16.0127      16.0127      16.0127            0            0            0    400175.16     390529.3    407305.39    402690.78    16233.627    3714.8565    9410.4951   -4630.7463 
     193   -4630.8919      16.0127      16.0127      16.0127            0            0            0    400752.88    391045.41       408299    402914.22    15983.537    3428.5902    9951.3183   -4630.8919 
     194   -4631.0852      16.0127      16.0127      16.0127            0            0            0    401042.36    392010.88    407717.06    403399.16    16113.813    4154.5024    9876.1436   -4631.0852 
     195   -4631.3223      16.0127      16.0127      16.0127            0            0            0    400974.14    392116.01    407264.47    403541.93     16148.02      4577.54    9830.7454   -4631.3223 
     196   -4631.5254      16.0127      16.0127      16.0127            0            0            0    400637.38    390990.65    407453.86    403467.65     16184.15    4030.6022    10400.887   -4631.5254 
     197   -4631.7566      16.0127      16.0127      16.0127            0            0            0    400317.45    390116.16    406949.16    403887.02    16294.132    4389.8352    10225.345   -4631.7566 
     198   -4632.0045      16.0127      16.0127      16.0127            0            0            0    400272.99    390041.35    407267.02    403510.61    16201.082    5139.1907    10040.238   -4632.0045 
     199   -4632.1504      16.0127      16.0127      16.0127            0            0            0    400579.82    390601.81    407448.77    403688.88    16510.998    4545.1255    10657.595   -4632.1504 
     200   -4632.2556      16.0127      16.0127      16.0127            0            0            0    400796.73    390859.67    407733.68    403796.85    15924.462    4800.7145    10648.462   -4632.2556 
     201   -4632.3489      16.0127      16.0127      16.0127            0            0            0    401106.01     391081.3    408260.19    403976.54    15537.281    4692.8955    10603.389   -4632.3489 
     202   -4632.4311      16.0127      16.0127      16.0127            0            0            0    401141.48    391514.05    408221.32    403689.06    15242.364    5188.8668    10709.082   -4632.4311 
     203   -4632.5316      16.0127      16.0127      16.0127            0            0            0    401390.19    392371.15    407907.03     403892.4    15104.571    5061.6099    10563.834   -4632.5316 
     204   -4632.6258      16.0127      16.0127      16.0127            0            0            0    401919.36    392705.74    408707.08    404345.27    14657.662    4676.6888    10062.347   -4632.6258 
     205   -4632.7285      16.0127      16.0127      16.0127            0            0            0    402272.38    393316.72    408876.48    404623.93    15144.598    4637.2772    9991.6634   -4632.7285 
     206   -4632.8221      16.0127      16.0127      16.0127            0            0            0    401904.46    393291.69    408576.14    403845.56    15124.514    4793.5119    10155.386   -4632.8221 
     207   -4632.8835      16.0127      16.0127      16.0127            0            0            0    401677.98    393233.42    408295.42     403505.1    14999.682    4584.5687    9974.5388   -4632.8835 
     208   -4632.9398      16.0127      16.0127      16.0127            0            0            0    401502.04    393228.81    408391.51    402885.79    14792.901    4470.2064    10124.905   -4632.9398 
     209   -4632.9857      16.0127      16.0127      16.0127            0            0            0    401355.47    393123.73    408090.73    402851.96    14887.655    3947.9754    10110.587   -4632.9857 
     210   -4633.0219      16.0127      16.0127      16.0127            0            0            0    401153.32    392669.38    408315.04    402475.54    14521.755    4005.3602    10339.057   -4633.0219 
     211   -4633.0546      16.0127      16.0127      16.0127            0            0            0    400913.73    392244.79    408385.66    402110.74    14499.411    3720.0508    10536.846   -4633.0546 
     212   -4633.0847      16.0127      16.0127      16.0127            0            0            0    400564.57    392194.32    407965.56    401533.82    14423.522    3489.0383    10494.666   -4633.0847 
     213   -4633.1102      16.0127      16.0127      16.0127            0            0            0     400242.9    391788.63     407951.6    400988.46     14059.35    3457.5946    10706.166   -4633.1102 
     214   -4633.1346      16.0127      16.0127      16.0127            0            0            0     400052.1    391657.76    407815.71    400682.83    14302.406    3304.5139    10830.629   -4633.1346 
     215   -4633.1531      16.0127      16.0127      16.0127            0            0            0    399879.48    391555.09    407565.45    400517.91    14262.217    3309.4124    10888.341   -4633.1531 
     216   -4633.1726      16.0127      16.0127      16.0127            0            0            0    399719.71    391646.87    407305.39    400206.87    14121.388    3242.8749    10894.135   -4633.1726 
     217    -4633.189      16.0127      16.0127      16.0127            0            0            0    399522.67    391604.06    407125.05     399838.9    14003.093    3096.0856    10872.853    -4633.189 
     218   -4633.2018      16.0127      16.0127      16.0127            0            0            0    399411.47    391704.41    406995.84    399534.15    14110.106    3188.3609    10986.579   -4633.2018 
     219   -4633.2127      16.0127      16.0127      16.0127            0            0            0    399460.59    391750.24    407038.09    399593.44    14270.677    3266.5553    10958.364   -4633.2127 
     220   -4633.2212      16.0127      16.0127      16.0127            0            0            0    399570.01    391893.07    407148.94    399668.01    14122.628    3261.3619    11104.154   -4633.2212 
     221   -4633.2288      16.0127      16.0127      16.0127            0            0            0    399581.02    392146.33    406977.84    399618.88    14160.196    3222.7906    11076.162   -4633.2288 
     222   -4633.2351      16.0127      16.0127      16.0127            0            0            0    399644.49    392477.17    406977.42    399478.89    14169.169    3333.3913    10966.163   -4633.2351 
     223   -4633.2413      16.0127      16.0127      16.0127            0            0            0    399816.88    392914.46    407097.23    399438.96    14189.406    3298.8729    10901.603   -4633.2413 
     224   -4633.2473      16.0127      16.0127      16.0127            0            0            0    399898.39    393247.73    406981.14    399466.29    14211.844      3366.49    10819.628   -4633.2473 
     225   -4633.2528      16.0127      16.0127      16.0127            0            0            0       399931     393376.7    406874.24    399542.06    14158.402       3463.7    10683.185   -4633.2528 
     226   -4633.2578      16.0127      16.0127      16.0127            0            0            0    400005.12    393676.78    406988.89     399349.7    14238.944     3557.673    10525.722   -4633.2578 
     227   -4633.2632      16.0127      16.0127      16.0127            0            0            0       400106    393891.97    407083.72    399342.31    14306.468    3644.6264    10599.337   -4633.2632 
     228   -4633.2697      16.0127      16.0127      16.0127            0            0            0    400247.36    394236.69    407206.25    399299.14    14347.838    3781.9041    10559.175   -4633.2697 
     229   -4633.2771      16.0127      16.0127      16.0127            0            0            0     400431.9    394700.41    407238.82    399356.47    14329.795    3748.0036    10463.227   -4633.2771 
     230   -4633.2876      16.0127      16.0127      16.0127            0            0            0    400694.11    395392.95    407345.72    399343.65    14453.382    3930.5918    10460.333   -4633.2876 
     231      -4633.3      16.0127      16.0127      16.0127            0            0            0    401019.83     396220.9     407549.8    399288.79    14816.297    4209.2445    10443.889      -4633.3 
     232   -4633.3163      16.0127      16.0127      16.0127            0            0            0    401335.13    397171.18    407786.48    399047.73    14913.906    4433.0169    10493.478   -4633.3163 
     233   -4633.3328      16.0127      16.0127      16.0127            0            0            0    401448.34    397860.95    407768.73    398715.34    15167.987    4525.6389    10378.958   -4633.3328 
     234   -4633.3487      16.0127      16.0127      16.0127            0            0            0    401473.43    398279.39    407734.43    398406.46    15406.821    4705.7625    10416.241   -4633.3487 
     235   -4633.3625      16.0127      16.0127      16.0127            0            0            0    401563.28    398662.39    407836.59    398190.85    15611.422     4695.868    10355.072   -4633.3625 
     236   -4633.3741      16.0127      16.0127      16.0127            0            0            0    401696.64    399052.61       408004    398033.31    15834.297    4679.1427     10266.68   -4633.3741 
     237   -4633.3853      16.0127      16.0127      16.0127            0            0            0    401767.59     399233.2    408143.13    397926.44     16076.16    4575.3576    10077.402   -4633.3853 
     238   -4633.3929      16.0127      16.0127      16.0127            0            0            0    401839.98    399393.45    408316.74    397809.74    16194.875    4536.1732     9983.319   -4633.3929 
     239   -4633.3997      16.0127      16.0127      16.0127            0            0            0    401925.42    399495.65    408420.92    397859.69    16336.819    4496.7031    9953.6238   -4633.3997 
     240   -4633.4061      16.0127      16.0127      16.0127            0            0            0    402005.21    399544.64     408667.6    397803.38    16449.819    4437.2848    9782.9752   -4633.4061 
     241   -4633.4113      16.0127      16.0127      16.0127            0            0            0    402073.78     399571.5    408842.75    397807.09    16521.576    4235.7338    9730.4934   -4633.4113 
     242    -4633.416      16.0127      16.0127      16.0127            0            0            0    402139.29    399648.72    408966.58    397802.55    16562.807    4179.3725    9721.5295    -4633.416 
     243   -4633.4204      16.0127      16.0127      16.0127            0            0            0    402222.36    399713.53    409067.55    397886.02    16600.855    4108.3342     9651.941   -4633.4204 
     244    -4633.424      16.0127      16.0127      16.0127            0            0            0    402259.41    399730.21    409215.94    397832.07     16510.51    4100.9646    9641.8213    -4633.424 
     245   -4633.4271      16.0127      16.0127      16.0127            0            0            0    402245.75    399700.97    409286.14    397750.14    16488.569    4047.9855    9604.7609   -4633.4271 
     246   -4633.4297      16.0127      16.0127      16.0127            0            0            0    402249.02     399708.2    409337.35    397701.51    16494.252    4014.2086    9618.4224   -4633.4297 
     247   -4633.4319      16.0127      16.0127      16.0127            0            0            0    402226.38    399669.83    409349.85    397659.47    16407.239    4008.8352    9650.4522   -4633.4319 
     248   -4633.4339      16.0127      16.0127      16.0127            0            0            0    402203.91     399660.7     409339.2    397611.84    16339.129    4004.7181    9661.7298   -4633.4339 
     249   -4633.4354      16.0127      16.0127      16.0127            0            0            0    402189.44     399623.8    409336.86    397607.66    16243.195    3992.5027    9659.1607   -4633.4354 
     250   -4633.4369      16.0127      16.0127      16.0127            0            0            0    402200.25    399652.59    409371.58    397576.59    16141.147    4042.3235    9657.7097   -4633.4369 
     251   -4633.4383      16.0127      16.0127      16.0127            0            0            0    402207.33    399651.58     409353.5    397616.92    16110.968    4061.7912    9683.0267   -4633.4383 
     252   -4633.4395      16.0127      16.0127      16.0127            0            0            0    402195.14    399611.05    409352.07    397622.29    16007.935    4122.7648    9712.4831   -4633.4395 
     253   -4633.4406      16.0127      16.0127      16.0127            0            0            0    402186.36    399608.46    409318.19    397632.44    15974.084    4158.7448    9717.6094   -4633.4406 
     254   -4633.4415      16.0127      16.0127      16.0127            0            0            0    402171.68    399578.78    409303.31    397632.96    15959.107    4245.0124    9711.6735   -4633.4415 
     255   -4633.4424      16.0127      16.0127      16.0127            0            0            0    402157.97    399512.43    409298.52    397662.96    15934.936    4291.4823    9701.2681   -4633.4424 
     256    -4633.443      16.0127      16.0127      16.0127            0            0            0    402158.59    399483.66    409334.17    397657.94    15922.494    4322.8407    9694.6267    -4633.443 
     257   -4633.4438      16.0127      16.0127      16.0127            0            0            0    402153.44    399403.52    409364.97    397691.83    15904.775    4325.3105    9690.5005   -4633.4438 
     258   -4633.4446      16.0127      16.0127      16.0127            0            0            0    402139.46    399334.37    409379.46    397704.56    15904.732    4354.0081    9709.5864   -4633.4446 
     259   -4633.4451      16.0127      16.0127      16.0127            0            0            0    402121.21    399234.16    409384.24    397745.24    15896.955    4385.9926    9708.8324   -4633.4451 
     260   -4633.4458      16.0127      16.0127      16.0127            0            0            0     402124.9    399182.17    409419.42    397773.11    15916.116    4414.3697    9707.2976   -4633.4458 
     261   -4633.4465      16.0127      16.0127      16.0127            0            0            0    402133.36    399137.51    409459.68    397802.88    15950.464    4399.1611    9733.7913   -4633.4465 
     262    -4633.447      16.0127      16.0127      16.0127            0            0            0    402130.45    399049.16    409482.43    397859.75    15964.906    4396.6284    9756.6384    -4633.447 
     263   -4633.4473      16.0127      16.0127      16.0127            0            0            0    402114.24       398985    409457.89    397899.82    16023.347    4384.8526    9758.3793   -4633.4473 
     264   -4633.4475      16.0127      16.0127      16.0127            0            0            0    402099.31    398932.39    409446.45    397919.08    16040.872     4391.885    9771.8216   -4633.4475 
     265   -4633.4478      16.0127      16.0127      16.0127            0            0            0    402090.76    398899.71    409409.82    397962.74    16067.061    4381.3388     9782.208   -4633.4478 
     266   -4633.4482      16.0127      16.0127      16.0127            0            0            0    402074.89    398868.93    409385.22    397970.51    16096.649     4398.642     9780.109   -4633.4482 
     267   -4633.4484      16.0127      16.0127      16.0127            0            0            0    402056.75       398807    409371.99    397991.27    16126.352    4388.4379     9762.285   -4633.4484 
     268   -4633.4486      16.0127      16.0127      16.0127            0            0            0    402044.73    398782.87    409362.92    397988.39    16170.493    4395.8152    9745.1856   -4633.4486 
     269   -4633.4488      16.0127      16.0127      16.0127            0            0            0    402030.03    398738.64    409354.58    397996.86    16186.052    4402.1062    9739.3126   -4633.4488 
     270    -4633.449      16.0127      16.0127      16.0127            0            0            0    402016.42    398704.61    409344.01    398000.64    16206.076    4398.7982    9734.8642    -4633.449 
     271   -4633.4492      16.0127      16.0127      16.0127            0            0            0    401996.51    398661.43    409328.72    397999.38    16222.387    4394.8662    9721.3083   -4633.4492 
     272   -4633.4494      16.0127      16.0127      16.0127            0            0            0    401981.17    398628.16     409319.9    397995.44    16214.396    4393.1483    9717.4765   -4633.4494 
     273   -4633.4496      16.0127      16.0127      16.0127            0            0            0    401964.71     398595.9    409303.12    397995.11    16209.737    4377.5455    9723.9643   -4633.4496 
     274   -4633.4498      16.0127      16.0127      16.0127            0            0            0    401950.93    398561.31    409305.64    397985.83    16183.952    4372.2491    9723.8232   -4633.4498 
     275     -4633.45      16.0127      16.0127      16.0127            0            0            0    401942.81    398538.63    409294.07    397995.74    16172.619    4339.0059    9715.5429     -4633.45 
     276     -4633.45      16.0127      16.0127      16.0127            0            0            0    401942.81    398538.63    409294.07    397995.74    16172.619    4339.0059    9715.5429     -4633.45 
Loop time of 3.93326 on 1 procs for 276 steps with 216 atoms

Minimization stats:
  Stopping criterion = linesearch alpha is zero
  Energy initial, next-to-last, final = 
        -4027.57691979     -4633.44997845     -4633.44997845
  Force two-norm initial, final = 225.415 0.086582
  Force max component initial, final = 64.364 0.0262236
  Final line search alpha, max atom move = 9.53674e-07 2.50087e-08
  Iterations, force evaluations = 276 476

Pair  time (%) = 1.35069 (34.3401)
Kspce time (%) = 2.39707 (60.9434)
Neigh time (%) = 0.110626 (2.81257)
Comm  time (%) = 0.0269773 (0.685876)
Outpt time (%) = 0.0367701 (0.93485)
Other time (%) = 0.0111396 (0.283216)

Nlocal:    216 ave 216 max 216 min
Histogram: 1 0 0 0 0 0 0 0 0 0
Nghost:    2748 ave 2748 max 2748 min
Histogram: 1 0 0 0 0 0 0 0 0 0
Neighs:    31838 ave 31838 max 31838 min
Histogram: 1 0 0 0 0 0 0 0 0 0

Total # of neighbors = 31838
Ave neighs/atom = 147.398
Neighbor list builds = 37
Dangerous builds = 0


variable natoms equal "count(all)"
variable tot_energy equal "c_eatoms"
variable length_x equal "lx"
variable length_y equal "ly"
variable length_z equal "lz"
variable tilt_xy equal "xy"
variable tilt_xz equal "xz"
variable tilt_yz equal "yz"
variable ecoh equal "pe/atoms"
variable press_t equal "press"
variable press_xx equal "pxx"
variable press_yy equal "pyy"
variable press_zz equal "pzz"
variable press_xy equal "pxy"
variable press_xz equal "pxz"
variable press_yz equal "pyz"
#variable ecoh equal "v_etotal/v_atoms"
# --- output
print "pyPosMat output section"
pyPosMat output section
print "tot_energy = ${tot_energy}"
tot_energy = -4633.44997844515
print "num_atoms = ${natoms}"
num_atoms = 216
print "xx = ${length_x}"
xx = 16.0127
print "yy = ${length_y}"
yy = 16.0127
print "zz = ${length_z}"
zz = 16.0127
print "xy = ${tilt_xy}"
xy = 0
print "xz = ${tilt_xz}"
xz = 0
print "yz = ${tilt_yz}"
yz = 0
print "pressure_total = ${press_t}"
pressure_total = 401942.813655737
print "press_xx = ${press_xx}"
press_xx = 398538.634430802
print "press_yy = ${press_yy}"
press_yy = 409294.066337171
print "press_zz = ${press_zz}"
press_zz = 397995.740199239
print "press_xy = ${press_xy}"
press_xy = 16172.6186652881
print "press_xz = ${press_xz}"
press_xz = 4339.00585365429
print "press_yz = ${press_yz}"
press_yz = 9715.54286965258

print "ecoh = ${ecoh}"
ecoh = -21.4511573076163
print "lammps_sim_done"
lammps_sim_done
