LAMMPS (10 Feb 2015)
# ---- initialize simulations
clear
units metal
dimension 3
boundary p p p
atom_style charge
atom_modify map array
# ---- create atoms
read_data lammps.structure
  triclinic box = (0 0 0) to (16.0127 16.0127 16.0127) with tilt (0 0 0)
  1 by 1 by 1 MPI processor grid
  reading atoms ...
  216 atoms
# ---- define interatomic potential
include potential.mod
mass 1 24.305
mass 2 15.999

group magnesium type 1
108 atoms in group magnesium
group oxygen type 2
108 atoms in group oxygen

set group magnesium charge 2.1335249445945137
  108 settings made for charge
set group oxygen charge -2.1335249445945137
  108 settings made for charge

variable R_cut equal 10.0

pair_style buck/coul/long ${R_cut}
pair_style buck/coul/long 10
pair_coeff 1 1 0.0 0.5 0.0 ${R_cut}
pair_coeff 1 1 0.0 0.5 0.0 10
pair_coeff 1 2 849.3091599660628 0.3025359510724032 0.0 ${R_cut}
pair_coeff 1 2 849.3091599660628 0.3025359510724032 0.0 10
pair_coeff 2 2 23489.37888205462 0.3558498499632836 76.7448985072756 ${R_cut}
pair_coeff 2 2 23489.37888205462 0.3558498499632836 76.7448985072756 10

kspace_style pppm 1.0e-5

neighbor 1.0 bin
neigh_modify every 1 delay 0 check yes

# ---- define settings
compute eng all pe/atom
compute eatoms all reduce sum c_eng

# ---- run minimization
reset_timestep 0
thermo 1
thermo_style custom step pe lx ly lz xy xz yz press pxx pyy pzz pxy pxz pyz c_eatoms
min_style cg
minimize 1e-20 1e-20 1000 100000
PPPM initialization ...
  G vector (1/distance) = 0.342337
  grid = 24 24 24
  stencil order = 5
  estimated absolute RMS force accuracy = 0.000109259
  estimated relative force accuracy = 7.58759e-06
  using double precision FFTs
  3d grid and FFT values/proc = 29791 13824
Neighbor list info ...
  1 neighbor list requests
  update every 1 steps, delay 0 steps, check yes
  master list distance cutoff = 11
Memory usage per processor = 7.83223 Mbytes
Step PotEng Lx Ly Lz Xy Xz Yz Press Pxx Pyy Pzz Pxy Pxz Pyz eatoms 
       0    -4160.662      16.0127      16.0127      16.0127            0            0            0     5092.663    4158.0647    5559.9621    5559.9621   -292.25032   -292.25032   -337.62464    -4160.662 
       1   -4181.2315      16.0127      16.0127      16.0127            0            0            0    4794.1719    4395.3781    4993.5688    4993.5688    9.8222665    9.8222665    26.259766   -4181.2315 
       2   -4191.3837      16.0127      16.0127      16.0127            0            0            0    8594.6268     8097.675    8843.1027    8843.1027    339.22473    339.22473    484.19043   -4191.3837 
       3   -4195.4112      16.0127      16.0127      16.0127            0            0            0    7954.8108    7095.9712    8384.2306    8384.2306    449.89247    449.89247    677.51354   -4195.4112 
       4   -4198.3478      16.0127      16.0127      16.0127            0            0            0    7625.5179    7005.2445    7935.6545    7935.6545    234.40095    234.40095    513.74286   -4198.3478 
       5   -4201.3497      16.0127      16.0127      16.0127            0            0            0    8268.1007    7609.2067    8597.5476    8597.5476    172.29719    172.29719    833.14358   -4201.3497 
       6   -4204.4867      16.0127      16.0127      16.0127            0            0            0     10679.18    10262.019     10887.76     10887.76    42.694734    42.694734    989.00778   -4204.4867 
       7   -4208.1712      16.0127      16.0127      16.0127            0            0            0     14191.87    14111.684    14231.963    14231.963   -81.135767   -81.135767    958.54581   -4208.1712 
       8   -4213.1344      16.0127      16.0127      16.0127            0            0            0    19155.938    18968.266    19249.774    19249.774   -328.74316   -328.74316    1360.2319   -4213.1344 
       9   -4219.2577      16.0127      16.0127      16.0127            0            0            0    25848.265    25376.414     26084.19     26084.19   -657.31543   -657.31543    1495.8059   -4219.2577 
      10   -4226.5085      16.0127      16.0127      16.0127            0            0            0    33323.324     32346.57    33811.702    33811.702   -1308.0217   -1308.0217    2098.7916   -4226.5085 
      11   -4235.3504      16.0127      16.0127      16.0127            0            0            0    42571.021     40986.87    43363.097    43363.097   -1956.8109   -1956.8109    3053.9931   -4235.3504 
      12    -4244.291      16.0127      16.0127      16.0127            0            0            0    51786.706    49689.115    52835.501    52835.501   -2460.0348   -2460.0348    4479.8991    -4244.291 
      13   -4253.7522      16.0127      16.0127      16.0127            0            0            0    61802.251    59297.302    63054.726    63054.726    -2722.553    -2722.553    6381.8615   -4253.7522 
      14   -4264.9065      16.0127      16.0127      16.0127            0            0            0    74244.059     71556.25    75587.964    75587.964   -2604.4837   -2604.4837    9229.8742   -4264.9065 
      15   -4278.2076      16.0127      16.0127      16.0127            0            0            0    89030.414    86908.824     90091.21     90091.21    -2055.811    -2055.811    13002.056   -4278.2076 
      16   -4291.9616      16.0127      16.0127      16.0127            0            0            0    103240.72    102141.86    103790.15    103790.15   -1401.1831   -1401.1831    16692.792   -4291.9616 
      17   -4304.5053      16.0127      16.0127      16.0127            0            0            0     116283.8     116562.9    116144.26    116144.26     -748.399     -748.399    19685.632   -4304.5053 
      18   -4316.9491      16.0127      16.0127      16.0127            0            0            0     129629.1    131863.85    128511.73    128511.73   -269.91309   -269.91309    22439.375   -4316.9491 
      19   -4330.6781      16.0127      16.0127      16.0127            0            0            0    144945.21    149399.76    142717.94    142717.94    92.609219    92.609219    25432.777   -4330.6781 
      20   -4347.0697      16.0127      16.0127      16.0127            0            0            0    162255.23    167499.92    159632.88    159632.88    517.60229    517.60229    28889.633   -4347.0697 
      21   -4360.8539      16.0127      16.0127      16.0127            0            0            0    175561.19    180085.83    173298.87    173298.87    817.01606    817.01606    31496.889   -4360.8539 
      22   -4373.8014      16.0127      16.0127      16.0127            0            0            0    188137.06    191736.07    186337.55    186337.55    581.84896    581.84896    33638.366   -4373.8014 
      23    -4386.836      16.0127      16.0127      16.0127            0            0            0    201632.57    204575.11     200161.3     200161.3   -58.967309   -58.967309    35577.314    -4386.836 
      24   -4402.3314      16.0127      16.0127      16.0127            0            0            0    217917.02    220685.85    216532.61    216532.61   -1467.4033   -1467.4033    37938.433   -4402.3314 
      25   -4418.4259      16.0127      16.0127      16.0127            0            0            0    233785.57    237522.04    231917.33    231917.33   -3479.0975   -3479.0975     40753.89   -4418.4259 
      26   -4433.8912      16.0127      16.0127      16.0127            0            0            0    247225.96     251110.9    245283.49    245283.49   -5650.1092   -5650.1092    44383.683   -4433.8912 
      27   -4447.8666      16.0127      16.0127      16.0127            0            0            0    261768.17    268001.34    258651.58    258651.58   -8190.0501   -8190.0501    47623.996   -4447.8666 
      28   -4458.4473      16.0127      16.0127      16.0127            0            0            0    267645.25    271144.63    265895.56    265895.56   -9631.2158   -9631.2158    51200.752   -4458.4473 
      29   -4467.7881      16.0127      16.0127      16.0127            0            0            0    275670.43    280904.86    273053.22    273053.22   -11022.614   -11022.614    53340.798   -4467.7881 
      30   -4476.1975      16.0127      16.0127      16.0127            0            0            0    279757.96    282826.76    278223.55    278223.55   -11960.617   -11960.617    55823.561   -4476.1975 
      31   -4485.2982      16.0127      16.0127      16.0127            0            0            0    286152.79     290015.1    284221.63    284221.63   -12811.891   -12811.891    58310.925   -4485.2982 
      32   -4493.2129      16.0127      16.0127      16.0127            0            0            0    287583.22    287603.41    287573.12    287573.12   -13126.501   -13126.501    61138.915   -4493.2129 
      33    -4503.153      16.0127      16.0127      16.0127            0            0            0    292855.08    293446.81    292559.22    292559.22   -13309.467   -13309.466    63775.203    -4503.153 
      34   -4511.2969      16.0127      16.0127      16.0127            0            0            0    295098.46    294537.03    295379.18    295379.18   -13789.736   -13789.738     65909.11   -4511.2969 
      35   -4518.3889      16.0127      16.0127      16.0127            0            0            0     297649.9    296425.32    298262.19    298262.19   -13625.919   -13625.917    67153.308   -4518.3889 
      36   -4525.0806      16.0127      16.0127      16.0127            0            0            0    299941.12    299838.53    299992.41    299992.42   -13818.803   -13818.801    68415.424   -4525.0806 
      37   -4531.1016      16.0127      16.0127      16.0127            0            0            0    301710.84    300829.48    302151.52    302151.52   -14186.345   -14186.345    69134.575   -4531.1016 
      38   -4535.5837      16.0127      16.0127      16.0127            0            0            0    304186.91    306744.67    302908.03    302908.04   -14194.993   -14194.992      69970.9   -4535.5837 
      39   -4542.1886      16.0127      16.0127      16.0127            0            0            0    305835.41     306457.4    305524.42    305524.41   -14062.103   -14062.104    70402.051   -4542.1886 
      40   -4547.0344      16.0127      16.0127      16.0127            0            0            0    309968.97    313776.16    308065.38    308065.37   -14538.383   -14538.384    70194.917   -4547.0344 
      41   -4552.3574      16.0127      16.0127      16.0127            0            0            0    312111.92    312749.15    311793.31    311793.31   -14509.656   -14509.655    69234.381   -4552.3574 
      42   -4556.0878      16.0127      16.0127      16.0127            0            0            0    315284.07    317833.91    314009.14    314009.14   -13858.544   -13858.538    69158.939   -4556.0878 
      43   -4559.0303      16.0127      16.0127      16.0127            0            0            0     315711.3    316207.53    315463.18    315463.18   -13969.257   -13969.255    68867.946   -4559.0303 
      44   -4561.9898      16.0127      16.0127      16.0127            0            0            0    317206.26    318792.93    316412.92    316412.92   -13383.706   -13383.701    68941.881   -4561.9898 
      45   -4563.1455      16.0127      16.0127      16.0127            0            0            0    318451.91    322988.84    316183.44    316183.44   -11797.463   -11797.459    69777.414   -4563.1455 
      46   -4566.0969      16.0127      16.0127      16.0127            0            0            0    317638.36    321607.76    315653.67    315653.65   -11308.868   -11308.868    70171.873   -4566.0969 
      47   -4566.8128      16.0127      16.0127      16.0127            0            0            0    316385.54    318757.07    315199.77    315199.77   -12927.022   -12927.024    69244.766   -4566.8128 
      48   -4568.9514      16.0127      16.0127      16.0127            0            0            0    318262.35    321545.24    316620.89    316620.91    -14106.99   -14106.989    68172.104   -4568.9514 
      49   -4571.6949      16.0127      16.0127      16.0127            0            0            0    318853.17    322884.46    316837.52    316837.51   -12311.026   -12311.012    68473.754   -4571.6949 
      50   -4573.0439      16.0127      16.0127      16.0127            0            0            0    317920.09    322157.22    315801.53    315801.53   -13022.547   -13022.551    66810.921   -4573.0439 
      51   -4574.6175      16.0127      16.0127      16.0127            0            0            0    317741.01    322322.85    315450.09    315450.09   -12799.891   -12799.906     65517.93   -4574.6175 
      52   -4576.3452      16.0127      16.0127      16.0127            0            0            0    318563.94    322719.82       316486    316485.99   -11888.636   -11888.624    65994.881   -4576.3452 
      53   -4578.2689      16.0127      16.0127      16.0127            0            0            0    319913.07    325614.18    317062.52    317062.52   -12397.885   -12397.855    63433.422   -4578.2689 
      54   -4579.9662      16.0127      16.0127      16.0127            0            0            0    320673.74    327000.52    317510.34    317510.35   -12779.719   -12779.725    62184.231   -4579.9662 
      55   -4581.5268      16.0127      16.0127      16.0127            0            0            0    321209.78    327419.31    318105.02    318105.02   -12729.152   -12729.156    61227.162   -4581.5268 
      56   -4582.5824      16.0127      16.0127      16.0127            0            0            0    321136.72    327173.94    318118.11     318118.1   -12460.509   -12460.491    60386.309   -4582.5824 
      57   -4584.4539      16.0127      16.0127      16.0127            0            0            0    322935.13    329532.49    319636.45    319636.45   -12815.605   -12815.586    59614.652   -4584.4539 
      58   -4585.9948      16.0127      16.0127      16.0127            0            0            0    322550.18    330234.23    318708.17    318708.15   -12696.279   -12696.254    58117.353   -4585.9948 
      59   -4587.6729      16.0127      16.0127      16.0127            0            0            0    323440.45    330917.63    319701.87    319701.85   -12845.595   -12845.579    57654.221   -4587.6729 
      60   -4588.4609      16.0127      16.0127      16.0127            0            0            0    324487.43    331321.58    321070.35    321070.34   -13068.517   -13068.496    57835.788   -4588.4609 
      61   -4589.8692      16.0127      16.0127      16.0127            0            0            0    325527.08    332637.57    321971.84    321971.83   -12942.357   -12942.302    56826.253   -4589.8692 
      62   -4591.0593      16.0127      16.0127      16.0127            0            0            0    326600.38    332268.31    323766.41    323766.41   -13411.692   -13411.688    57258.352   -4591.0593 
      63   -4592.1982      16.0127      16.0127      16.0127            0            0            0    327530.01     332619.2    324985.43     324985.4   -12862.721   -12862.711    55987.792   -4592.1982 
      64   -4592.8454      16.0127      16.0127      16.0127            0            0            0    327570.06    332970.93    324869.63    324869.62   -12427.027   -12426.979    54749.119   -4592.8454 
      65   -4593.8732      16.0127      16.0127      16.0127            0            0            0    329023.62    333511.29    326779.79    326779.79   -13591.763   -13591.719    53532.223   -4593.8732 
      66   -4595.3443      16.0127      16.0127      16.0127            0            0            0    329769.88    334022.02    327643.82    327643.81   -13098.386   -13098.344    51461.942   -4595.3443 
      67   -4595.7912      16.0127      16.0127      16.0127            0            0            0    329252.41    332993.29       327382    327381.96   -11877.644   -11877.597    51402.393   -4595.7912 
      68   -4596.6951      16.0127      16.0127      16.0127            0            0            0    331045.13    333230.55    329952.43     329952.4   -12555.812   -12555.785    51791.399   -4596.6951 
      69   -4597.7151      16.0127      16.0127      16.0127            0            0            0    332568.64    335015.99    331344.99    331344.95   -13101.529   -13101.479     49503.76   -4597.7151 
      70   -4598.6376      16.0127      16.0127      16.0127            0            0            0    333231.43    336064.84    331814.74     331814.7     -13026.1   -13026.096     47158.44   -4598.6376 
      71   -4599.7053      16.0127      16.0127      16.0127            0            0            0     332129.4    333855.95    331266.16    331266.09   -11180.568   -11180.604    46914.695   -4599.7053 
      72   -4600.4276      16.0127      16.0127      16.0127            0            0            0    330774.55     332817.6    329753.12    329752.94   -11356.483   -11356.516    44386.531   -4600.4276 
      73   -4601.2241      16.0127      16.0127      16.0127            0            0            0    331827.96     333372.5    331055.79    331055.59    -12745.17   -12745.255    42591.859   -4601.2241 
      74   -4601.8134      16.0127      16.0127      16.0127            0            0            0    333004.15    333953.59    332529.58    332529.29   -11774.251   -11774.343    39797.951   -4601.8134 
      75   -4602.2467      16.0127      16.0127      16.0127            0            0            0    334253.07    333661.68    334548.92    334548.61    -12040.27    -12040.39     38021.45   -4602.2467 
      76   -4602.6838      16.0127      16.0127      16.0127            0            0            0    334224.71    332248.79    335212.93    335212.42   -12864.557   -12864.731    37694.834   -4602.6838 
      77   -4603.0294      16.0127      16.0127      16.0127            0            0            0    333495.73    331972.05    334257.94    334257.21   -13274.001   -13274.311    37874.025   -4603.0294 
      78   -4603.4515      16.0127      16.0127      16.0127            0            0            0    333529.99    330330.51    335130.38    335129.09   -13786.424   -13787.029     36430.02   -4603.4515 
      79   -4604.0196      16.0127      16.0127      16.0127            0            0            0    335048.48    330189.66    337478.75    337477.02   -14418.317    -14419.24    34107.671   -4604.0196 
      80   -4604.8226      16.0127      16.0127      16.0127            0            0            0    336824.93     329924.7    340276.58    340273.53     -15637.3   -15639.103    34634.808   -4604.8226 
      81   -4605.8217      16.0127      16.0127      16.0127            0            0            0     338812.9    329874.62    343284.06    343280.03   -15507.986   -15510.718    33214.726   -4605.8217 
      82     -4606.87      16.0127      16.0127      16.0127            0            0            0    339967.21    329999.68    344953.84    344948.11   -15967.775   -15971.939    32056.296     -4606.87 
      83    -4607.897      16.0127      16.0127      16.0127            0            0            0    340682.57    329938.42    346057.84    346051.45   -16640.538   -16645.753    29985.657    -4607.897 
      84   -4608.9123      16.0127      16.0127      16.0127            0            0            0    341260.39    329485.62       347152    347143.56   -15677.951   -15685.741    28089.072   -4608.9123 
      85   -4609.8553      16.0127      16.0127      16.0127            0            0            0    341836.57    329541.17    347989.13    347979.41    -14357.83    -14368.28    26986.223   -4609.8553 
      86   -4610.7118      16.0127      16.0127      16.0127            0            0            0     341457.6    328302.15    348042.82    348027.84   -15172.591   -15187.332    26901.936   -4610.7118 
      87   -4611.4399      16.0127      16.0127      16.0127            0            0            0    342083.04    328843.07    348711.45     348694.6   -14337.171   -14355.375    24858.457   -4611.4399 
      88   -4612.0901      16.0127      16.0127      16.0127            0            0            0    341580.23    328295.39    348233.69     348211.6   -14081.336   -14104.413    24173.321   -4612.0901 
      89   -4612.7546      16.0127      16.0127      16.0127            0            0            0    341724.01     329425.5    347885.93     347860.6   -13737.059   -13766.304    23034.242   -4612.7546 
      90   -4613.5138      16.0127      16.0127      16.0127            0            0            0    341689.84    329305.98    347904.76    347858.78   -12903.368   -12952.957    23295.727   -4613.5138 
      91   -4614.2319      16.0127      16.0127      16.0127            0            0            0    341965.34    330299.35    347828.57    347768.09   -12103.245   -12170.825    22472.636   -4614.2319 
      92   -4614.9641      16.0127      16.0127      16.0127            0            0            0    341611.78    330895.12    347001.08    346939.13   -12406.954    -12481.58    20557.158   -4614.9641 
      93   -4615.5369      16.0127      16.0127      16.0127            0            0            0    342670.83    332563.89    347771.11    347677.49   -12924.096   -13025.372    18974.687   -4615.5369 
      94   -4616.1829      16.0127      16.0127      16.0127            0            0            0    344268.64    334232.85    349340.34    349232.72   -13034.857   -13160.453    18536.342   -4616.1829 
      95   -4616.5511      16.0127      16.0127      16.0127            0            0            0    343822.11    332824.72    349382.54    349259.07   -12863.952   -13015.443    20242.664   -4616.5511 
      96   -4616.7348      16.0127      16.0127      16.0127            0            0            0    344077.49    333364.36    349517.54    349350.57   -12326.598    -12523.24     20349.29   -4616.7348 
      97   -4616.9819      16.0127      16.0127      16.0127            0            0            0    344429.74    334273.99    349622.28    349392.96   -12736.512   -13015.502    18772.385   -4616.9819 
      98   -4617.1507      16.0127      16.0127      16.0127            0            0            0    343935.24    333654.56    349223.44    348927.72   -13107.933   -13476.495    18542.156   -4617.1507 
      99   -4617.3118      16.0127      16.0127      16.0127            0            0            0     343861.9    334331.91     348828.4     348425.4   -12296.815   -12821.556    17950.887   -4617.3118 
     100   -4617.4435      16.0127      16.0127      16.0127            0            0            0    343501.85       334488    348289.77     347727.8   -12190.018   -12915.434    17828.368   -4617.4435 
     101   -4617.5772      16.0127      16.0127      16.0127            0            0            0    343485.93    335000.29    348113.35    347344.15   -12218.815   -13255.204    17847.938   -4617.5772 
     102   -4617.8263      16.0127      16.0127      16.0127            0            0            0    344279.69    336278.43    348983.62    347577.02   -11589.325   -13548.237    16186.131   -4617.8263 
     103   -4618.1763      16.0127      16.0127      16.0127            0            0            0    344805.25    337102.52    349617.33    347695.91   -11527.128   -14371.529    15905.574   -4618.1763 
     104   -4618.6583      16.0127      16.0127      16.0127            0            0            0    345454.17    339108.55    349614.56    347639.41   -11842.065   -15263.441    16175.942   -4618.6583 
     105   -4619.1832      16.0127      16.0127      16.0127            0            0            0     346403.7    340841.29    350243.76    348126.06   -11638.488   -15654.307    14788.031   -4619.1832 
     106   -4619.7685      16.0127      16.0127      16.0127            0            0            0    346688.15    340311.82    350944.66    348807.97    -11170.96   -15563.712    13343.711   -4619.7685 
     107   -4620.3431      16.0127      16.0127      16.0127            0            0            0    348276.02    341273.33    352289.23    351265.48   -11955.216    -16361.92    14159.912   -4620.3431 
     108   -4620.9709      16.0127      16.0127      16.0127            0            0            0    350292.57    343359.93    354180.83    353336.97    -12346.78   -17248.881    14603.621   -4620.9709 
     109   -4621.3987      16.0127      16.0127      16.0127            0            0            0    351087.82    344737.62     354333.5    354192.34   -11228.962   -16102.029    13894.117   -4621.3987 
     110   -4621.7197      16.0127      16.0127      16.0127            0            0            0    350278.29    344074.98       353204    353555.88   -11798.322   -16573.634    13294.255   -4621.7197 
     111   -4622.0542      16.0127      16.0127      16.0127            0            0            0    350872.53    345300.55    353313.23     354003.8   -12598.216   -17457.902    11432.259   -4622.0542 
     112   -4622.2565      16.0127      16.0127      16.0127            0            0            0    351016.24    345009.81    353401.38    354637.54   -12335.326   -17156.819    11298.625   -4622.2565 
     113   -4622.3653      16.0127      16.0127      16.0127            0            0            0    350687.16    344487.95    353121.81    354451.73   -12378.614   -16991.873    11062.996   -4622.3653 
     114    -4622.456      16.0127      16.0127      16.0127            0            0            0    350662.16     344357.7     353073.6    354555.19   -12570.877   -16833.526    10836.819    -4622.456 
     115   -4622.5468      16.0127      16.0127      16.0127            0            0            0    350747.97    344360.22    352961.35    354922.34   -12450.462   -16303.401    10858.896   -4622.5468 
     116   -4622.6211      16.0127      16.0127      16.0127            0            0            0    350218.23    344281.84     352191.1    354181.75   -12703.228   -16351.107    9925.4768   -4622.6211 
     117   -4622.6826      16.0127      16.0127      16.0127            0            0            0    350189.56    344225.66    352112.67    354230.35   -12836.252   -16469.896    10261.344   -4622.6826 
     118   -4622.7326      16.0127      16.0127      16.0127            0            0            0    350195.78    344203.51    352069.29    354314.54   -12460.702   -16088.282    10200.335   -4622.7326 
     119   -4622.7968      16.0127      16.0127      16.0127            0            0            0    350086.38    344610.25    351625.95    354022.94   -12188.285   -15897.983    9896.6046   -4622.7968 
     120   -4622.8923      16.0127      16.0127      16.0127            0            0            0    350123.18    345383.15    351170.07    353816.32   -12048.724   -15792.111    9298.6987   -4622.8923 
     121   -4623.0377      16.0127      16.0127      16.0127            0            0            0     350469.3    346223.35    351266.28    353918.27   -11505.241   -15666.229    8953.0887   -4623.0377 
     122   -4623.3025      16.0127      16.0127      16.0127            0            0            0    351100.24    347620.43       351485    354195.28   -10748.224   -14807.768    8494.5319   -4623.3025 
     123   -4623.6577      16.0127      16.0127      16.0127            0            0            0     352151.2     349351.1    352204.12    354898.37   -10480.762   -14514.518    8166.8101   -4623.6577 
     124   -4624.0355      16.0127      16.0127      16.0127            0            0            0    352929.04    350355.78    352974.35    355456.98   -10981.454   -15034.457    7599.0207   -4624.0355 
     125   -4624.3999      16.0127      16.0127      16.0127            0            0            0    353423.31    350949.03    353283.22     356037.7   -10979.141   -14426.313    6982.0702   -4624.3999 
     126   -4624.6644      16.0127      16.0127      16.0127            0            0            0    353634.41    351209.15    353444.01    356250.08     -10344.2   -13675.633    7591.2181   -4624.6644 
     127   -4624.9433      16.0127      16.0127      16.0127            0            0            0     353733.7    351395.04    353671.23    356134.84   -10604.432   -13643.704    7183.8005   -4624.9433 
     128   -4625.1025      16.0127      16.0127      16.0127            0            0            0    353808.79    351309.54    353856.74    356260.08   -11257.598   -14277.186    6773.3525   -4625.1025 
     129   -4625.2358      16.0127      16.0127      16.0127            0            0            0    354475.92    351982.91    354426.13    357018.73   -10975.617   -13225.637    5872.0215   -4625.2358 
     130    -4625.443      16.0127      16.0127      16.0127            0            0            0    355184.55    352375.81    355475.36    357702.49   -10775.767   -12884.079    5904.6806    -4625.443 
     131   -4625.5423      16.0127      16.0127      16.0127            0            0            0     354716.8    351911.51    355194.88    357044.02   -11228.066   -13414.172    6034.0448   -4625.5423 
     132   -4625.5931      16.0127      16.0127      16.0127            0            0            0    354404.17    351625.87    354836.61    356750.01   -11078.584    -12986.73    5890.2146   -4625.5931 
     133   -4625.6769      16.0127      16.0127      16.0127            0            0            0    354437.73     351287.2    355030.34    356995.64   -11386.925    -13022.31    5937.2809   -4625.6769 
     134   -4625.8915      16.0127      16.0127      16.0127            0            0            0    354904.13    350861.13    355947.78     357903.5   -12586.385   -12367.812    4295.0106   -4625.8915 
     135   -4626.0232      16.0127      16.0127      16.0127            0            0            0    355588.01    351122.43    357009.41     358632.2   -12328.613   -11302.308    3856.4874   -4626.0232 
     136   -4626.1731      16.0127      16.0127      16.0127            0            0            0    356700.81    352069.75    358346.59    359686.09   -12720.285   -10130.385    3016.5107   -4626.1731 
     137   -4626.4083      16.0127      16.0127      16.0127            0            0            0    357690.19    352644.93    359629.54    360796.11   -13202.868   -8897.9534    2393.2015   -4626.4083 
     138   -4626.8104      16.0127      16.0127      16.0127            0            0            0    357500.93    352088.89    359472.17    360941.74   -14164.527   -8593.4902    1517.5798   -4626.8104 
     139   -4627.2043      16.0127      16.0127      16.0127            0            0            0    357908.06    353087.84     359302.2    361334.15   -15349.403   -8511.5126    607.53761   -4627.2043 
     140   -4627.6818      16.0127      16.0127      16.0127            0            0            0    359490.36    355624.34    360744.53     362102.2   -15077.391   -7052.7091    1484.3187   -4627.6818 
     141   -4628.1607      16.0127      16.0127      16.0127            0            0            0    360035.04     356258.5    361383.82    362462.79   -15923.476   -6010.6171    1047.8028   -4628.1607 
     142   -4628.6883      16.0127      16.0127      16.0127            0            0            0    359894.94    355940.87     361366.9    362377.04   -16648.499   -5654.0323    483.93956   -4628.6883 
     143   -4629.0901      16.0127      16.0127      16.0127            0            0            0    359733.25    355783.19    360994.11    362422.45   -17215.247   -5237.9922   -142.91477   -4629.0901 
     144   -4629.4026      16.0127      16.0127      16.0127            0            0            0    359826.43    355598.27    361397.78    362483.24   -17555.642    -5278.893   -151.29019   -4629.4026 
     145   -4629.5249      16.0127      16.0127      16.0127            0            0            0    359951.34    355571.98    361769.57    362512.46   -17483.167   -5079.7733   -70.236823   -4629.5249 
     146    -4629.625      16.0127      16.0127      16.0127            0            0            0    360273.19     356102.2    361867.07    362850.31   -17314.144   -4823.1891   -118.28778    -4629.625 
     147    -4629.774      16.0127      16.0127      16.0127            0            0            0    360744.27    356720.33    362313.28     363199.2   -16863.803   -4974.9899    244.33595    -4629.774 
     148   -4629.9672      16.0127      16.0127      16.0127            0            0            0    360010.63    355662.27    361665.31    362704.32   -17407.346   -4782.0824   -665.48998   -4629.9672 
     149   -4630.0469      16.0127      16.0127      16.0127            0            0            0    359497.25    354996.98    361324.01    362170.77   -17282.235   -4987.2267    -461.2041   -4630.0469 
     150   -4630.1092      16.0127      16.0127      16.0127            0            0            0    359227.21     354787.9    361146.48    361747.25   -17232.647   -4733.0962   -376.88693   -4630.1092 
     151   -4630.1543      16.0127      16.0127      16.0127            0            0            0    359316.59    354830.53    361230.26    361888.99   -17348.105   -4597.0496   -142.08994   -4630.1543 
     152   -4630.2146      16.0127      16.0127      16.0127            0            0            0     359133.6    354845.83    361191.11    361363.86   -17286.176   -4711.8757   -495.76033   -4630.2146 
     153    -4630.256      16.0127      16.0127      16.0127            0            0            0    359002.26       354787       360928    361291.77   -17425.262   -4638.7236   -472.96064    -4630.256 
     154   -4630.2893      16.0127      16.0127      16.0127            0            0            0    358990.39    354820.44    361004.13    361146.59   -17463.127   -4280.0638    8.8263709   -4630.2893 
     155   -4630.3195      16.0127      16.0127      16.0127            0            0            0    358606.38    354719.27    360493.25    360606.62    -17761.68   -4249.7476   -1.7049712   -4630.3195 
     156   -4630.3768      16.0127      16.0127      16.0127            0            0            0    357650.52    353576.05    359452.08    359923.42   -18412.016    -4558.086    707.07764   -4630.3768 
     157    -4630.479      16.0127      16.0127      16.0127            0            0            0       356861    352624.08    358702.35    359256.58   -19023.908   -4551.8674    807.58602    -4630.479 
     158   -4630.6301      16.0127      16.0127      16.0127            0            0            0    357295.69    352954.84    359446.55    359485.68   -19413.299   -4555.2912     1077.252   -4630.6301 
     159   -4630.7493      16.0127      16.0127      16.0127            0            0            0    357499.49    352570.54    360257.77    359670.16   -19390.747   -4369.4282    1269.4959   -4630.7493 
     160   -4630.8385      16.0127      16.0127      16.0127            0            0            0    357449.67     352396.8    360435.27    359516.93   -19311.418   -4330.7887    435.88078   -4630.8385 
     161   -4630.9011      16.0127      16.0127      16.0127            0            0            0    357894.42    352572.65    361248.68    359861.94   -19208.695   -4371.5781    754.36398   -4630.9011 
     162   -4630.9638      16.0127      16.0127      16.0127            0            0            0    358162.09    352818.39    361813.56    359854.33   -19099.846   -3671.3537    471.45982   -4630.9638 
     163   -4631.0189      16.0127      16.0127      16.0127            0            0            0    358265.46    352910.97    362318.65    359566.76   -18812.256   -3379.2175    595.55371   -4631.0189 
     164   -4631.0951      16.0127      16.0127      16.0127            0            0            0    358459.89    353118.82    362647.79    359613.06   -18867.386   -3026.3285    380.58893   -4631.0951 
     165   -4631.1883      16.0127      16.0127      16.0127            0            0            0    358925.46    353758.68    363472.11     359545.6   -18867.395   -2199.4774    479.08798   -4631.1883 
     166   -4631.3398      16.0127      16.0127      16.0127            0            0            0    359313.77    354622.85    363733.96     359584.5   -18659.117   -1105.0277     958.4734   -4631.3398 
     167   -4631.5061      16.0127      16.0127      16.0127            0            0            0    359641.57    354848.03    364181.37    359895.32   -18250.109   -948.78569    1143.0464   -4631.5061 
     168   -4631.6461      16.0127      16.0127      16.0127            0            0            0    360207.62    355143.65    364703.42    360775.78    -18120.33   -535.88319    884.99763   -4631.6461 
     169   -4631.7958      16.0127      16.0127      16.0127            0            0            0       361147     355606.1     365898.1    361936.81   -17702.111   -303.48818    507.87871   -4631.7958 
     170   -4631.9378      16.0127      16.0127      16.0127            0            0            0     361572.8    356302.99    365827.94    362587.47   -17514.824   -697.23885   -233.22793   -4631.9378 
     171   -4632.0668      16.0127      16.0127      16.0127            0            0            0    361454.94    355885.51    366132.79    362346.54    -16940.38    -1277.758   -51.968193   -4632.0668 
     172   -4632.2166      16.0127      16.0127      16.0127            0            0            0    361007.07    355848.86    365361.99    361810.35   -16663.085   -1980.7701   -489.36747   -4632.2166 
     173   -4632.3499      16.0127      16.0127      16.0127            0            0            0    360725.57    355486.97    365304.98    361384.75   -16571.643   -3264.1774   -226.90936   -4632.3499 
     174   -4632.5167      16.0127      16.0127      16.0127            0            0            0    360295.67    354185.52    365257.56    361443.93   -16638.021   -4473.2086   -1226.7703   -4632.5167 
     175   -4632.7069      16.0127      16.0127      16.0127            0            0            0    360471.68    353559.04     366393.5     361462.5   -16435.033   -5649.8998   -1209.3998   -4632.7069 
     176   -4632.8659      16.0127      16.0127      16.0127            0            0            0    360506.55    353173.63    366626.22    361719.78   -16645.249   -5913.4451   -1995.1091   -4632.8659 
     177   -4633.0333      16.0127      16.0127      16.0127            0            0            0    360906.76       353306    367133.95    362280.32   -16834.507   -6471.6299   -1759.4178   -4633.0333 
     178    -4633.178      16.0127      16.0127      16.0127            0            0            0    361229.66    353415.98    367244.08    363028.93   -17368.878   -6428.0222   -2554.0089    -4633.178 
     179    -4633.314      16.0127      16.0127      16.0127            0            0            0    361967.27    353963.99    368015.15    363922.68   -17737.008   -6591.6461   -2258.6541    -4633.314 
     180   -4633.4272      16.0127      16.0127      16.0127            0            0            0     362279.8    354526.13    367632.82    364680.47   -18203.793   -6120.6202   -2912.1551   -4633.4272 
     181   -4633.5255      16.0127      16.0127      16.0127            0            0            0    362097.57     354187.6    367382.37    364722.74   -18645.173   -5855.4861   -2625.8572   -4633.5255 
     182   -4633.6116      16.0127      16.0127      16.0127            0            0            0    361641.12    353894.23    366447.81    364581.32   -19069.675   -5487.5004    -2897.549   -4633.6116 
     183   -4633.7084      16.0127      16.0127      16.0127            0            0            0    361459.52    353608.56    366514.34    364255.66     -19586.7   -4816.9522   -2759.9407   -4633.7084 
     184   -4633.8222      16.0127      16.0127      16.0127            0            0            0     361393.7    353843.03    366071.84    364266.22   -20126.531   -4405.6518   -2692.3618   -4633.8222 
     185   -4633.9896      16.0127      16.0127      16.0127            0            0            0    361329.65    354018.85    365908.31    364061.78   -20354.499   -4237.5799   -2508.6624   -4633.9896 
     186    -4634.167      16.0127      16.0127      16.0127            0            0            0    361368.69    354439.27    365193.47    364473.33   -20538.449   -4209.0076   -2477.0043    -4634.167 
     187   -4634.3426      16.0127      16.0127      16.0127            0            0            0    361502.51    354667.51    365193.65    364646.37   -20518.021   -4034.3166   -2334.8956   -4634.3426 
     188   -4634.5014      16.0127      16.0127      16.0127            0            0            0     361397.2    354636.49    364693.59    364861.54   -20143.754   -4017.3175   -2180.6486   -4634.5014 
     189   -4634.6598      16.0127      16.0127      16.0127            0            0            0    361416.74    354737.56    364526.64    364986.01   -20224.272   -3658.3316   -1793.2207   -4634.6598 
     190   -4634.7178      16.0127      16.0127      16.0127            0            0            0    361500.04    354968.02    364441.77    365090.34   -20200.365   -3562.2844   -1733.9339   -4634.7178 
     191   -4634.7698      16.0127      16.0127      16.0127            0            0            0    361355.99    354932.98     364323.4    364811.61   -20581.481   -3691.3857   -1665.2814   -4634.7698 
     192   -4634.8249      16.0127      16.0127      16.0127            0            0            0    360985.52    354565.44    363873.58    364517.54   -20532.345   -3793.5357   -1581.2227   -4634.8249 
     193   -4634.9367      16.0127      16.0127      16.0127            0            0            0    360338.19     354110.2    363298.38    363605.99   -20782.515   -3481.0737   -1461.4981   -4634.9367 
     194   -4635.0097      16.0127      16.0127      16.0127            0            0            0    360176.73     354178.5    362870.38     363481.3   -20571.238   -3631.3057   -1303.5651   -4635.0097 
     195    -4635.054      16.0127      16.0127      16.0127            0            0            0    360085.04    354054.98    362759.82    363440.31   -20545.706   -3641.7478   -1231.0395    -4635.054 
     196   -4635.0837      16.0127      16.0127      16.0127            0            0            0    360103.16    353989.61    362824.03    363495.83    -20496.69    -3722.137   -1238.4054   -4635.0837 
     197   -4635.1079      16.0127      16.0127      16.0127            0            0            0    360310.56    354211.43    363090.56     363629.7   -20491.891   -3646.9885   -1174.5213   -4635.1079 
     198   -4635.1255      16.0127      16.0127      16.0127            0            0            0     360425.2    354318.48    363283.97    363673.15   -20533.845    -3574.884   -1176.5647   -4635.1255 
     199   -4635.1457      16.0127      16.0127      16.0127            0            0            0    360283.35    354316.31    363156.49    363377.24   -20370.123   -3674.9932   -1461.4251   -4635.1457 
     200   -4635.1669      16.0127      16.0127      16.0127            0            0            0    360165.83    354301.71    363064.64    363131.14   -20434.047     -3892.77   -1501.1138   -4635.1669 
     201   -4635.1892      16.0127      16.0127      16.0127            0            0            0    360221.24    354352.72    363290.91    363020.08    -20272.44   -3793.8087   -1789.8763   -4635.1892 
     202   -4635.2139      16.0127      16.0127      16.0127            0            0            0    360404.23    354380.13    363846.43    362986.14   -20166.521   -4045.3172   -1885.3868   -4635.2139 
     203   -4635.2428      16.0127      16.0127      16.0127            0            0            0     360541.9    354406.87    364200.57    363018.25   -20048.763   -4437.3364   -2282.5649   -4635.2428 
     204   -4635.2747      16.0127      16.0127      16.0127            0            0            0    360771.86    354858.09    364540.25    362917.24   -20048.323    -4415.812   -2993.2441   -4635.2747 
     205   -4635.3157      16.0127      16.0127      16.0127            0            0            0    361057.71    355178.72     364916.7     363077.7   -19796.355   -4554.3249   -3262.7112   -4635.3157 
     206   -4635.3718      16.0127      16.0127      16.0127            0            0            0    361121.86    355140.33    365436.66     362788.6   -19846.727   -4439.7682   -3861.3587   -4635.3718 
     207   -4635.4622      16.0127      16.0127      16.0127            0            0            0    361208.23    355170.75    365627.21    362826.74   -19795.365   -4350.3179   -4395.4654   -4635.4622 
     208   -4635.6677      16.0127      16.0127      16.0127            0            0            0    361353.29    355295.29    365904.37    362860.21   -19750.548   -4264.4758   -4937.8424   -4635.6677 
     209   -4635.9081      16.0127      16.0127      16.0127            0            0            0    361285.06    355143.89    366344.99    362366.31   -20141.855   -4317.0651   -5453.2848   -4635.9081 
     210   -4636.1538      16.0127      16.0127      16.0127            0            0            0    361555.13    355324.08    366711.39    362629.94   -20051.303   -4318.8048   -5503.5921   -4636.1538 
     211   -4636.3266      16.0127      16.0127      16.0127            0            0            0    361794.95    356022.07    366891.69    362471.09    -20389.02   -3968.5058   -6068.8505   -4636.3266 
     212   -4636.4346      16.0127      16.0127      16.0127            0            0            0    362198.07    356691.18    366904.69    362998.33   -20505.196   -4398.7745   -5694.4731   -4636.4346 
     213   -4636.4842      16.0127      16.0127      16.0127            0            0            0    362133.02    356250.31    367043.53    363105.23   -20447.216    -4597.875   -5178.7956   -4636.4842 
     214   -4636.5242      16.0127      16.0127      16.0127            0            0            0    361974.37    355892.82    367277.36    362752.92   -20710.909   -4466.2564   -5463.7914   -4636.5242 
     215    -4636.568      16.0127      16.0127      16.0127            0            0            0    361941.31    355778.34    367095.54    362950.04    -20804.48   -4628.2649   -5809.5161    -4636.568 
     216   -4636.6085      16.0127      16.0127      16.0127            0            0            0    362114.53    355835.94    367299.59    363208.04   -20996.889   -4933.5773   -5393.1184   -4636.6085 
     217   -4636.6546      16.0127      16.0127      16.0127            0            0            0    362491.56    356550.12    367547.46    363377.11   -20883.453   -5168.0826   -5799.3491   -4636.6546 
     218   -4636.6834      16.0127      16.0127      16.0127            0            0            0    362968.38    357030.17    368021.43    363853.55   -20882.128   -5423.1829   -5815.8357   -4636.6834 
     219   -4636.7043      16.0127      16.0127      16.0127            0            0            0    363311.42    357343.03    368495.21    364096.01   -20820.227   -5432.2117   -5799.3115   -4636.7043 
     220   -4636.7181      16.0127      16.0127      16.0127            0            0            0    363378.59     357422.1    368489.61    364224.07   -20683.357   -5621.8142    -5889.348   -4636.7181 
     221   -4636.7298      16.0127      16.0127      16.0127            0            0            0    363404.78    357309.82    368591.12     364313.4   -20917.205   -5753.3945   -5876.2216   -4636.7298 
     222   -4636.7392      16.0127      16.0127      16.0127            0            0            0     363507.3    357513.21    368517.51    364491.19   -20872.854   -5793.0877   -5998.4048   -4636.7392 
     223   -4636.7466      16.0127      16.0127      16.0127            0            0            0    363662.13    357740.23    368598.22    364647.94   -20783.091   -5895.9286   -6137.5655   -4636.7466 
     224   -4636.7526      16.0127      16.0127      16.0127            0            0            0    363790.64    357795.19    368794.68    364782.05   -20741.464    -5850.566   -6176.9396   -4636.7526 
     225    -4636.756      16.0127      16.0127      16.0127            0            0            0    363835.27    357944.35     368666.7    364894.78     -20702.5   -5943.9509   -6101.4199    -4636.756 
     226   -4636.7588      16.0127      16.0127      16.0127            0            0            0    363828.41    357981.67    368706.98    364796.57   -20735.701   -6025.2962   -6119.8902   -4636.7588 
     227   -4636.7606      16.0127      16.0127      16.0127            0            0            0    363866.44    358016.19     368781.8    364801.32   -20684.867   -6038.0106   -6149.4636   -4636.7606 
     228   -4636.7621      16.0127      16.0127      16.0127            0            0            0    363907.92    358093.29    368767.15    364863.33   -20725.292   -6055.1782   -6146.4188   -4636.7621 
     229   -4636.7631      16.0127      16.0127      16.0127            0            0            0    363877.73    358045.15    368721.88    364866.16   -20749.193   -6044.7209   -6201.6237   -4636.7631 
     230    -4636.764      16.0127      16.0127      16.0127            0            0            0    363846.04    357993.61    368653.62    364890.89   -20742.195    -6054.362   -6191.0568    -4636.764 
     231   -4636.7646      16.0127      16.0127      16.0127            0            0            0    363830.71    357996.77    368639.48    364855.87   -20769.914   -6053.8233   -6198.2769   -4636.7646 
     232   -4636.7651      16.0127      16.0127      16.0127            0            0            0    363808.64    357997.89    368605.54     364822.5   -20773.712    -6040.329   -6237.8869   -4636.7651 
     233   -4636.7654      16.0127      16.0127      16.0127            0            0            0    363788.61    357982.92    368576.36    364806.55   -20803.674   -6036.8676   -6230.2493   -4636.7654 
     234   -4636.7656      16.0127      16.0127      16.0127            0            0            0    363773.13    357977.19    368536.19       364806   -20785.664    -6036.069   -6244.0129   -4636.7656 
     235    -4636.766      16.0127      16.0127      16.0127            0            0            0    363753.65    357970.51    368490.65    364799.79   -20777.334   -6040.7867   -6265.4812    -4636.766 
     236   -4636.7661      16.0127      16.0127      16.0127            0            0            0    363744.81    357947.09    368487.33    364800.01   -20797.259   -6045.5053   -6238.7812   -4636.7661 
     237   -4636.7661      16.0127      16.0127      16.0127            0            0            0    363752.65    357956.64    368487.31       364814   -20782.164   -6021.2827   -6242.0845   -4636.7661 
     238   -4636.7661      16.0127      16.0127      16.0127            0            0            0    363752.65    357956.64    368487.31       364814   -20782.164   -6021.2827   -6242.0845   -4636.7661 
Loop time of 3.49966 on 1 procs for 238 steps with 216 atoms

Minimization stats:
  Stopping criterion = linesearch alpha is zero
  Energy initial, next-to-last, final = 
        -4160.66198822     -4636.76614131     -4636.76614131
  Force two-norm initial, final = 49.0622 0.0744387
  Force max component initial, final = 9.19816 0.0125602
  Final line search alpha, max atom move = 1.90735e-06 2.39567e-08
  Iterations, force evaluations = 238 394

Pair  time (%) = 1.22428 (34.9829)
Kspce time (%) = 2.11636 (60.4732)
Neigh time (%) = 0.105012 (3.00062)
Comm  time (%) = 0.0239642 (0.684757)
Outpt time (%) = 0.0211265 (0.603673)
Other time (%) = 0.008919 (0.254853)

Nlocal:    216 ave 216 max 216 min
Histogram: 1 0 0 0 0 0 0 0 0 0
Nghost:    2725 ave 2725 max 2725 min
Histogram: 1 0 0 0 0 0 0 0 0 0
Neighs:    31750 ave 31750 max 31750 min
Histogram: 1 0 0 0 0 0 0 0 0 0

Total # of neighbors = 31750
Ave neighs/atom = 146.991
Neighbor list builds = 35
Dangerous builds = 0


variable natoms equal "count(all)"
variable tot_energy equal "c_eatoms"
variable length_x equal "lx"
variable length_y equal "ly"
variable length_z equal "lz"
variable tilt_xy equal "xy"
variable tilt_xz equal "xz"
variable tilt_yz equal "yz"
variable ecoh equal "pe/atoms"
variable press_t equal "press"
variable press_xx equal "pxx"
variable press_yy equal "pyy"
variable press_zz equal "pzz"
variable press_xy equal "pxy"
variable press_xz equal "pxz"
variable press_yz equal "pyz"
#variable ecoh equal "v_etotal/v_atoms"
# --- output
print "pyPosMat output section"
pyPosMat output section
print "tot_energy = ${tot_energy}"
tot_energy = -4636.76614131353
print "num_atoms = ${natoms}"
num_atoms = 216
print "xx = ${length_x}"
xx = 16.0127
print "yy = ${length_y}"
yy = 16.0127
print "zz = ${length_z}"
zz = 16.0127
print "xy = ${tilt_xy}"
xy = 0
print "xz = ${tilt_xz}"
xz = 0
print "yz = ${tilt_yz}"
yz = 0
print "pressure_total = ${press_t}"
pressure_total = 363752.650044756
print "press_xx = ${press_xx}"
press_xx = 357956.642490077
print "press_yy = ${press_yy}"
press_yy = 368487.312173172
print "press_zz = ${press_zz}"
press_zz = 364813.99547102
print "press_xy = ${press_xy}"
press_xy = -20782.1641378805
print "press_xz = ${press_xz}"
press_xz = -6021.28266723108
print "press_yz = ${press_yz}"
press_yz = -6242.08454436436

print "ecoh = ${ecoh}"
ecoh = -21.4665099134886
print "lammps_sim_done"
lammps_sim_done
