LAMMPS (10 Feb 2015)
# ---- initialize simulations
clear
units metal
dimension 3
boundary p p p
atom_style charge
atom_modify map array
# ---- create atoms
read_data lammps.structure
  triclinic box = (0 0 0) to (13.4833 13.4833 13.4833) with tilt (0 0 0)
  1 by 1 by 1 MPI processor grid
  reading atoms ...
  216 atoms
# ---- define interatomic potential
include potential.mod
mass 1 24.305
mass 2 15.999

group magnesium type 1
108 atoms in group magnesium
group oxygen type 2
108 atoms in group oxygen

set group magnesium charge 2.0611295138069776
  108 settings made for charge
set group oxygen charge -2.0611295138069776
  108 settings made for charge

variable R_cut equal 10.0

pair_style buck/coul/long ${R_cut}
pair_style buck/coul/long 10
pair_coeff 1 1 0.0 0.5 0.0 ${R_cut}
pair_coeff 1 1 0.0 0.5 0.0 10
pair_coeff 1 2 1199.8568533318069 0.2917778937980834 0.0 ${R_cut}
pair_coeff 1 2 1199.8568533318069 0.2917778937980834 0.0 10
pair_coeff 2 2 4745.2067211230715 0.34039368784625 38.18657310809654 ${R_cut}
pair_coeff 2 2 4745.2067211230715 0.34039368784625 38.18657310809654 10

kspace_style pppm 1.0e-5

neighbor 1.0 bin
neigh_modify every 1 delay 0 check yes

# ---- define settings
compute eng all pe/atom
compute eatoms all reduce sum c_eng

# ---- run minimization
reset_timestep 0
thermo 1
thermo_style custom step pe lx ly lz xy xz yz press pxx pyy pzz pxy pxz pyz c_eatoms
min_style cg
minimize 1e-20 1e-20 1000 100000
PPPM initialization ...
  G vector (1/distance) = 0.352275
  grid = 24 24 24
  stencil order = 5
  estimated absolute RMS force accuracy = 6.42779e-05
  estimated relative force accuracy = 4.46386e-06
  using double precision FFTs
  3d grid and FFT values/proc = 29791 13824
Neighbor list info ...
  1 neighbor list requests
  update every 1 steps, delay 0 steps, check yes
  master list distance cutoff = 11
Memory usage per processor = 7.83374 Mbytes
Step PotEng Lx Ly Lz Xy Xz Yz Press Pxx Pyy Pzz Pxy Pxz Pyz eatoms 
       0   -4498.7795      13.4833      13.4833      13.4833            0            0            0    11510.191    9774.5887    12377.993    12377.993   -542.55025   -542.55025   -626.79494   -4498.7795 
       1   -4523.2734      13.4833      13.4833      13.4833            0            0            0    12513.464    12298.649    12620.872    12620.872   -51.974851   -51.974851    27.902825   -4523.2734 
       2   -4530.4946      13.4833      13.4833      13.4833            0            0            0    20008.133    20260.784    19881.807    19881.807    188.01014    188.01014     472.5888   -4530.4946 
       3   -4533.2668      13.4833      13.4833      13.4833            0            0            0    17447.841    17562.729    17390.397    17390.397    221.69847    221.69847    512.35011   -4533.2668 
       4   -4534.3418      13.4833      13.4833      13.4833            0            0            0    19257.918    19303.435     19235.16     19235.16    124.82507    124.82507    465.13398   -4534.3418 
       5   -4535.5503      13.4833      13.4833      13.4833            0            0            0    24439.972    24350.937    24484.489    24484.489   -33.903694   -33.903694    822.05894   -4535.5503 
       6   -4536.1902      13.4833      13.4833      13.4833            0            0            0    27590.436    27751.054    27510.127    27510.127     18.20401     18.20401    1090.5238   -4536.1902 
       7   -4536.8774      13.4833      13.4833      13.4833            0            0            0    32658.785    33294.192    32341.081    32341.081   -41.869614   -41.869614    1123.4649   -4536.8774 
       8   -4537.2659      13.4833      13.4833      13.4833            0            0            0     35892.57    36456.366    35610.673    35610.673   -138.04319   -138.04319    1432.3871   -4537.2659 
       9   -4537.5044      13.4833      13.4833      13.4833            0            0            0     38718.16    39219.597    38467.442    38467.442   -179.13918   -179.13918    2011.2002   -4537.5044 
      10   -4537.7898      13.4833      13.4833      13.4833            0            0            0    42835.126    42908.473    42798.452    42798.452   -234.01387   -234.01387    2512.3214   -4537.7898 
      11   -4538.1099      13.4833      13.4833      13.4833            0            0            0    48561.544    47881.031    48901.801    48901.801    24.365928    24.365928     2839.052   -4538.1099 
      12   -4538.4505      13.4833      13.4833      13.4833            0            0            0    56376.226    54832.058    57148.311    57148.311    452.61457    452.61457    3787.0662   -4538.4505 
      13   -4538.9432      13.4833      13.4833      13.4833            0            0            0    67669.567    65109.327    68949.686    68949.686    1325.2469    1325.2469     4804.133   -4538.9432 
      14   -4539.3655      13.4833      13.4833      13.4833            0            0            0    74650.098    72593.833     75678.23     75678.23    2094.2814    2094.2814    5025.3445   -4539.3655 
      15   -4539.9149      13.4833      13.4833      13.4833            0            0            0    87452.011    86272.998    88041.517    88041.517    3138.6859    3138.6859    6229.4508   -4539.9149 
      16   -4540.2969      13.4833      13.4833      13.4833            0            0            0    94048.621    92919.176    94613.344    94613.344    3753.5576    3753.5577    7155.9421   -4540.2969 
      17   -4540.9388      13.4833      13.4833      13.4833            0            0            0    106001.57     104234.6    106885.05    106885.05    4051.6203    4051.6208    8447.9022   -4540.9388 
      18     -4541.53      13.4833      13.4833      13.4833            0            0            0    119539.81    116280.95    121169.25    121169.25    4518.8307    4518.8315    9786.7405     -4541.53 
      19    -4542.128      13.4833      13.4833      13.4833            0            0            0     131877.5    127290.26    134171.12    134171.12    4547.6658    4547.6669     11355.99    -4542.128 
      20   -4542.8699      13.4833      13.4833      13.4833            0            0            0    143394.63    138324.92    145929.49    145929.49    4850.0434    4850.0378    12382.262   -4542.8699 
      21   -4543.6032      13.4833      13.4833      13.4833            0            0            0    154995.76    149844.52    157571.38    157571.39    4042.0518    4042.0592    13476.451   -4543.6032 
      22    -4544.204      13.4833      13.4833      13.4833            0            0            0    162920.65    158055.63    165353.16    165353.16    3687.4541    3687.4528    14105.382    -4544.204 
      23   -4544.8409      13.4833      13.4833      13.4833            0            0            0    170797.14    166938.83     172726.3    172726.29     3088.857    3088.8609    15200.679   -4544.8409 
      24   -4545.3593      13.4833      13.4833      13.4833            0            0            0    177328.11    173151.11    179416.61    179416.62     2594.403    2594.4052    15286.327   -4545.3593 
      25   -4545.8601      13.4833      13.4833      13.4833            0            0            0    183824.93    179697.36    185888.72    185888.71    1597.3863     1597.374    15100.273   -4545.8601 
      26   -4546.2842      13.4833      13.4833      13.4833            0            0            0    189612.71    185232.26    191802.93    191802.94    295.92999    295.94488    15050.274   -4546.2842 
      27   -4546.6689      13.4833      13.4833      13.4833            0            0            0    195477.72    191998.17    197217.48     197217.5   -546.72388   -546.72171    15326.512   -4546.6689 
      28   -4547.0516      13.4833      13.4833      13.4833            0            0            0     200749.4    198286.47    201980.87    201980.87   -1139.2131   -1139.2109    15929.723   -4547.0516 
      29   -4547.4685      13.4833      13.4833      13.4833            0            0            0    205609.04    203750.75    206538.19    206538.18   -1476.1678   -1476.1583    16467.953   -4547.4685 
      30   -4547.8363      13.4833      13.4833      13.4833            0            0            0    210868.43    207876.77    212364.26    212364.24   -2209.0003   -2208.9889     17631.22   -4547.8363 
      31   -4548.2174      13.4833      13.4833      13.4833            0            0            0    216521.81    211927.74    218818.84    218818.84   -2815.2717   -2815.2616    18058.031   -4548.2174 
      32   -4548.5374      13.4833      13.4833      13.4833            0            0            0    221135.21    214849.03    224278.31    224278.28   -3452.7487   -3452.7471     18430.16   -4548.5374 
      33   -4548.9287      13.4833      13.4833      13.4833            0            0            0    226556.69    219425.37    230122.35    230122.35   -3902.2336   -3902.2252    18579.569   -4548.9287 
      34   -4549.4014      13.4833      13.4833      13.4833            0            0            0    229598.57    223767.76    232513.97    232513.97   -3714.6222   -3714.6206     19132.47   -4549.4014 
      35   -4549.7311      13.4833      13.4833      13.4833            0            0            0    232627.44    229088.95    234396.68    234396.67   -3772.2575     -3772.24     18921.49   -4549.7311 
      36   -4549.9841      13.4833      13.4833      13.4833            0            0            0    235618.85    234737.42    236059.57    236059.55    -3663.117   -3663.1001    19346.918   -4549.9841 
      37   -4550.2266      13.4833      13.4833      13.4833            0            0            0    237875.29    237951.06    237837.39    237837.42     -3696.37   -3696.3558    19722.029   -4550.2266 
      38   -4550.4896      13.4833      13.4833      13.4833            0            0            0    240272.69    240145.63    240336.22    240336.23   -4111.3356    -4111.321    20607.435   -4550.4896 
      39    -4550.662      13.4833      13.4833      13.4833            0            0            0    241415.81    241110.04    241568.69     241568.7   -4208.0363   -4208.0126    21210.884    -4550.662 
      40   -4550.8684      13.4833      13.4833      13.4833            0            0            0    243330.38    243157.56    243416.77     243416.8   -4053.4827   -4053.4678    21679.468   -4550.8684 
      41   -4551.0384      13.4833      13.4833      13.4833            0            0            0    244548.22    244844.18    244400.23    244400.24   -3993.1005   -3993.0857    22417.628   -4551.0384 
      42   -4551.2443      13.4833      13.4833      13.4833            0            0            0    246480.14    248079.16    245680.62    245680.64   -4308.1954     -4308.17    22627.809   -4551.2443 
      43   -4551.4394      13.4833      13.4833      13.4833            0            0            0    248694.36    251164.61    247459.22    247459.26   -4469.9479   -4469.9002    23011.678   -4551.4394 
      44   -4551.6852      13.4833      13.4833      13.4833            0            0            0    251495.26    254511.41    249987.17     249987.2   -5046.0498   -5046.0147    23346.629   -4551.6852 
      45   -4551.9319      13.4833      13.4833      13.4833            0            0            0    254619.76    256536.67    253661.29    253661.33   -5579.0795   -5579.0449    23393.402   -4551.9319 
      46   -4552.1847      13.4833      13.4833      13.4833            0            0            0    258547.16    258825.85    258407.78    258407.86   -6270.5683   -6270.5283    23435.556   -4552.1847 
      47   -4552.4567      13.4833      13.4833      13.4833            0            0            0    262801.39    262669.09    262867.46    262867.61   -6615.8109   -6615.7518    23462.172   -4552.4567 
      48   -4552.7511      13.4833      13.4833      13.4833            0            0            0    267427.78    268328.21    266977.45    266977.66   -6624.1651   -6624.1013     23843.39   -4552.7511 
      49    -4553.031      13.4833      13.4833      13.4833            0            0            0    270542.15    273408.48    269108.88     269109.1   -6340.6628   -6340.5985    24623.316    -4553.031 
      50   -4553.3433      13.4833      13.4833      13.4833            0            0            0     273983.3    278533.48    271708.13     271708.3   -5592.2251   -5592.1875    25467.743   -4553.3433 
      51   -4553.6791      13.4833      13.4833      13.4833            0            0            0    276825.75     281863.6    274306.73    274306.94   -4839.7653   -4839.7229    25784.345   -4553.6791 
      52   -4554.0276      13.4833      13.4833      13.4833            0            0            0    279828.49    284747.13    277369.06    277369.28   -4445.8255   -4445.7941    25694.033   -4554.0276 
      53   -4554.3502      13.4833      13.4833      13.4833            0            0            0    282994.69    287608.35    280687.72    280688.01   -4166.7988   -4166.7618    25780.944   -4554.3502 
      54   -4554.7372      13.4833      13.4833      13.4833            0            0            0    287346.91    293238.66    284400.96    284401.11   -3753.1553   -3753.0593     25116.59   -4554.7372 
      55   -4555.1686      13.4833      13.4833      13.4833            0            0            0    291943.99    300041.68    287895.03    287895.25   -2642.0316   -2641.8957    25211.576   -4555.1686 
      56   -4555.6928      13.4833      13.4833      13.4833            0            0            0    296898.01    306380.31    292156.75    292156.97   -1904.3267   -1904.1781    25556.045   -4555.6928 
      57   -4556.3539      13.4833      13.4833      13.4833            0            0            0    301505.26    309616.68    297449.42    297449.66   -533.88428   -533.87304     26461.46   -4556.3539 
      58   -4556.8216      13.4833      13.4833      13.4833            0            0            0    306261.32    312586.07    303098.99    303098.89    191.79555    191.80297    26874.335   -4556.8216 
      59   -4557.4497      13.4833      13.4833      13.4833            0            0            0    308730.16    316311.41     304939.6    304939.47    397.11142    397.10468    27255.477   -4557.4497 
      60   -4557.9796      13.4833      13.4833      13.4833            0            0            0    311216.97    320168.04    306741.55    306741.31    643.99493    643.99352     28384.72   -4557.9796 
      61   -4558.6136      13.4833      13.4833      13.4833            0            0            0    314356.13    325084.17    308992.26    308991.96    203.96873    203.94135     29211.85   -4558.6136 
      62   -4559.2097      13.4833      13.4833      13.4833            0            0            0    317321.28    329482.58    311240.86    311240.39    692.09152    692.09229    29557.855   -4559.2097 
      63   -4559.8585      13.4833      13.4833      13.4833            0            0            0    320055.96    332333.66    313917.37    313916.84    1479.5507    1479.5088    29170.831   -4559.8585 
      64   -4560.4672      13.4833      13.4833      13.4833            0            0            0    320958.38    333265.99    314804.92    314804.23    2202.2662    2202.1649    30031.926   -4560.4672 
      65   -4561.0781      13.4833      13.4833      13.4833            0            0            0     322807.7    336541.45    315941.15    315940.51    2653.0324    2652.8137     31042.64   -4561.0781 
      66   -4561.7785      13.4833      13.4833      13.4833            0            0            0    324705.26    340142.71    316986.77    316986.29    2638.3227    2638.1455    30689.551   -4561.7785 
      67   -4562.4551      13.4833      13.4833      13.4833            0            0            0    327504.27    345056.78    318728.11    318727.92    2204.5038    2204.4087    29216.055   -4562.4551 
      68   -4563.0609      13.4833      13.4833      13.4833            0            0            0     331555.3    349862.34    322401.76    322401.79    1771.0285    1770.9732    28595.584   -4563.0609 
      69   -4563.6737      13.4833      13.4833      13.4833            0            0            0    335384.76    352501.16    326826.54    326826.59    1250.6484    1250.5376    27203.246   -4563.6737 
      70   -4564.1875      13.4833      13.4833      13.4833            0            0            0    339048.01    354368.13    331388.12    331387.79    1264.4879    1264.4799    25743.264   -4564.1875 
      71   -4564.6847      13.4833      13.4833      13.4833            0            0            0    343436.22     356914.9    336697.04    336696.72    257.54384    257.48019    24768.104   -4564.6847 
      72    -4565.253      13.4833      13.4833      13.4833            0            0            0    348501.48    361264.54    342119.87    342120.02   -971.75334   -972.06136    23989.892    -4565.253 
      73   -4565.8851      13.4833      13.4833      13.4833            0            0            0     354980.2    369238.18    347851.05    347851.36   -2953.8032   -2954.3405    22633.906   -4565.8851 
      74   -4566.6279      13.4833      13.4833      13.4833            0            0            0    361241.61    375140.27    354292.27     354292.3   -5205.3291   -5206.0313    21424.753   -4566.6279 
      75   -4567.3222      13.4833      13.4833      13.4833            0            0            0    364779.71    378368.26    357985.66     357985.2   -8398.7816   -8399.3804    21623.663   -4567.3222 
      76   -4568.1443      13.4833      13.4833      13.4833            0            0            0    367912.48    380881.59    361428.14    361427.71   -10005.113   -10005.554    20085.604   -4568.1443 
      77   -4569.0751      13.4833      13.4833      13.4833            0            0            0     369705.1     382650.3    363232.53    363232.47    -12302.25   -12302.837    19678.483   -4569.0751 
      78   -4570.3871      13.4833      13.4833      13.4833            0            0            0    371214.64    384015.23    364814.18    364814.51   -13776.072   -13776.672    19028.917   -4570.3871 
      79   -4571.8081      13.4833      13.4833      13.4833            0            0            0    371175.18    380198.17    366663.29    366664.07   -15549.403   -15549.888    19032.424   -4571.8081 
      80    -4573.168      13.4833      13.4833      13.4833            0            0            0    370979.79    375073.51    368932.57    368933.29   -16839.124   -16839.476    17480.889    -4573.168 
      81   -4574.4433      13.4833      13.4833      13.4833            0            0            0    369803.48    371867.63    368770.86    368771.93   -17785.472   -17785.711     16429.27   -4574.4433 
      82   -4575.6098      13.4833      13.4833      13.4833            0            0            0    369125.25     369300.5       369037    369038.26   -17527.199   -17527.415    15378.131   -4575.6098 
      83   -4576.7005      13.4833      13.4833      13.4833            0            0            0     368403.9    368807.56    368201.35    368202.78   -17212.868   -17213.097    15593.168   -4576.7005 
      84   -4577.6891      13.4833      13.4833      13.4833            0            0            0    367517.49    367249.88    367650.66    367651.94   -16706.411   -16706.499    15733.926   -4577.6891 
      85   -4578.6428      13.4833      13.4833      13.4833            0            0            0    366479.38    366087.39    366674.75    366675.99   -16233.252   -16233.215    16203.428   -4578.6428 
      86   -4579.5828      13.4833      13.4833      13.4833            0            0            0    365566.34    364849.41    365924.42    365925.18   -15679.639   -15679.462    16390.822   -4579.5828 
      87   -4580.6261      13.4833      13.4833      13.4833            0            0            0    364293.79     363820.2    364530.23    364530.93   -15497.764   -15497.431      17359.2   -4580.6261 
      88   -4581.8375      13.4833      13.4833      13.4833            0            0            0    362904.81    362037.62    363338.43    363338.38   -14953.758   -14953.059    17561.356   -4581.8375 
      89   -4583.0591      13.4833      13.4833      13.4833            0            0            0    361148.02     360181.7    361631.21    361631.15   -14965.387   -14964.751    18481.894   -4583.0591 
      90   -4584.2513      13.4833      13.4833      13.4833            0            0            0    359269.26    357640.45    360083.78    360083.56   -14573.653   -14572.672    18299.297   -4584.2513 
      91   -4585.4212      13.4833      13.4833      13.4833            0            0            0    356992.38    354876.88    358050.06     358050.2   -14598.455   -14597.955    18822.116   -4585.4212 
      92   -4586.5805      13.4833      13.4833      13.4833            0            0            0    354797.55    351969.74    356211.18    356211.74   -14332.225   -14331.407     18524.34   -4586.5805 
      93   -4587.7672      13.4833      13.4833      13.4833            0            0            0    352256.35    348939.14    353914.66    353915.25   -14312.692   -14312.702    19280.463   -4587.7672 
      94   -4588.9161      13.4833      13.4833      13.4833            0            0            0     350110.9    346210.74    352060.68    352061.28   -14187.836   -14187.226    19503.622   -4588.9161 
      95   -4590.0985      13.4833      13.4833      13.4833            0            0            0    347639.74    343494.65    349712.72    349711.85   -13851.407   -13851.193    21021.609   -4590.0985 
      96   -4591.4105      13.4833      13.4833      13.4833            0            0            0     345587.1    341348.38    347707.58    347705.35   -13839.654   -13837.867    22078.279   -4591.4105 
      97    -4592.502      13.4833      13.4833      13.4833            0            0            0    343932.61    340604.55     345598.1    345595.19   -14868.268   -14866.445    21340.712    -4592.502 
      98   -4593.2496      13.4833      13.4833      13.4833            0            0            0    343508.61    340415.18    345055.34    345055.32   -15416.219   -15413.208    20616.332   -4593.2496 
      99   -4593.9835      13.4833      13.4833      13.4833            0            0            0    343224.12    341073.62    344299.43    344299.31   -15565.459   -15562.681    20087.738   -4593.9835 
     100    -4594.262      13.4833      13.4833      13.4833            0            0            0    342618.25    340912.77    343472.11    343469.88   -15302.218   -15300.384    19886.784    -4594.262 
     101   -4594.7376      13.4833      13.4833      13.4833            0            0            0    341805.38    341054.25    342182.55    342179.35   -14043.021   -14040.353    18359.953   -4594.7376 
     102   -4595.2854      13.4833      13.4833      13.4833            0            0            0    340643.15    340581.85    340675.63    340671.96   -12569.294   -12566.637    17618.755   -4595.2854 
     103   -4595.8726      13.4833      13.4833      13.4833            0            0            0    339499.82    339479.65     339513.9    339505.92   -12361.529   -12356.554    16642.909   -4595.8726 
     104   -4596.3372      13.4833      13.4833      13.4833            0            0            0    338680.46     339370.2    338341.32    338329.85   -12014.563   -12010.665    16252.004   -4596.3372 
     105   -4596.8191      13.4833      13.4833      13.4833            0            0            0    337433.64    339034.84    336639.86    336626.21   -11083.194   -11080.221    15874.417   -4596.8191 
     106   -4597.2973      13.4833      13.4833      13.4833            0            0            0    336271.95    337908.89    335463.89    335443.07   -10123.822   -10118.434    14975.084   -4597.2973 
     107   -4598.0754      13.4833      13.4833      13.4833            0            0            0    334899.73    335419.76     334655.1    334624.33   -9235.8943   -9229.2571    14430.196   -4598.0754 
     108     -4598.88      13.4833      13.4833      13.4833            0            0            0     333694.4    334333.22     333396.9    333353.09    -8313.166   -8308.0579    15029.826     -4598.88 
     109    -4599.651      13.4833      13.4833      13.4833            0            0            0    332398.63    333537.68    331855.55    331802.65   -7980.8025   -7973.8237    14543.747    -4599.651 
     110   -4600.3585      13.4833      13.4833      13.4833            0            0            0    331737.33    332855.04    331205.98    331150.95   -7138.6363   -7127.3747    14950.319   -4600.3585 
     111   -4601.0007      13.4833      13.4833      13.4833            0            0            0    331601.55    331552.91    331650.93    331600.81   -6182.5794   -6168.5929    15082.493   -4601.0007 
     112   -4601.6133      13.4833      13.4833      13.4833            0            0            0    331198.71    330542.08    331548.64     331505.4   -5341.0885   -5326.5409    16158.028   -4601.6133 
     113   -4601.7732      13.4833      13.4833      13.4833            0            0            0    330876.53    330651.35    331008.36     330969.9   -5344.7479   -5332.2719    16504.143   -4601.7732 
     114   -4602.0569      13.4833      13.4833      13.4833            0            0            0    331309.32    330266.12    331844.35    331817.49   -5219.9695   -5216.6626    16703.388   -4602.0569 
     115   -4602.5038      13.4833      13.4833      13.4833            0            0            0    332139.88    329112.28    333655.42    333651.94   -4488.0259   -4499.0813    18536.364   -4602.5038 
     116   -4602.6738      13.4833      13.4833      13.4833            0            0            0    332795.66    328283.31    335048.78    335054.88   -4607.7073   -4621.6392     18858.36   -4602.6738 
     117   -4602.8156      13.4833      13.4833      13.4833            0            0            0     333295.7    328136.48    335866.31    335884.31   -4556.8958   -4570.6305    18819.538   -4602.8156 
     118   -4602.9286      13.4833      13.4833      13.4833            0            0            0    334146.47     328252.8    337077.88    337108.73   -4960.4672   -4969.7274    19119.853   -4602.9286 
     119   -4603.1204      13.4833      13.4833      13.4833            0            0            0    335034.56    328358.91    338344.65    338400.11   -5942.4291   -5942.8296    19025.339   -4603.1204 
     120   -4603.3031      13.4833      13.4833      13.4833            0            0            0    335911.16    327587.16    340033.09    340113.23   -6752.4318   -6746.7938    19079.907   -4603.3031 
     121   -4603.5466      13.4833      13.4833      13.4833            0            0            0    336478.39    326626.09    341357.09    341451.99   -7498.4106    -7484.599    19777.841   -4603.5466 
     122   -4603.9063      13.4833      13.4833      13.4833            0            0            0    336189.23    325205.43    341636.54     341725.7   -8194.4274   -8168.2561    20610.866   -4603.9063 
     123   -4604.2794      13.4833      13.4833      13.4833            0            0            0    336128.14    325079.76    341606.99    341697.66   -8806.3312   -8779.0134    21325.329   -4604.2794 
     124   -4604.8066      13.4833      13.4833      13.4833            0            0            0    336425.59    325910.01    341632.99    341733.75   -9708.6166   -9690.0913    20972.178   -4604.8066 
     125   -4605.3277      13.4833      13.4833      13.4833            0            0            0    335759.55    327320.83    339927.11    340030.72   -10379.546   -10372.676    20178.705   -4605.3277 
     126   -4605.8652      13.4833      13.4833      13.4833            0            0            0    335695.08    328598.19    339199.02    339288.02   -10839.738   -10854.508    18961.639   -4605.8652 
     127   -4606.4512      13.4833      13.4833      13.4833            0            0            0    334987.65    330424.09    337223.27    337315.58   -10725.546   -10775.149    17620.246   -4606.4512 
     128   -4607.0879      13.4833      13.4833      13.4833            0            0            0    333871.08    330143.12    335693.04    335777.08   -10721.265   -10803.421    15887.143   -4607.0879 
     129   -4607.7784      13.4833      13.4833      13.4833            0            0            0    332610.34     330719.3     333516.2    333595.51   -10173.729   -10284.693    14960.256   -4607.7784 
     130   -4608.4258      13.4833      13.4833      13.4833            0            0            0    331781.72    330338.93     332473.3    332532.92    -9662.508   -9790.8264    14179.558   -4608.4258 
     131     -4609.09      13.4833      13.4833      13.4833            0            0            0    330866.61    329550.22    331506.86    331542.77   -9229.7222    -9372.291    13571.289     -4609.09 
     132   -4609.7579      13.4833      13.4833      13.4833            0            0            0    330229.92    328466.57    331111.67    331111.52    -9010.707   -9147.9039    12917.059   -4609.7579 
     133   -4610.4292      13.4833      13.4833      13.4833            0            0            0    329730.82    328142.14    330537.58    330512.74   -8661.3807   -8794.0072    12477.074   -4610.4292 
     134   -4611.0651      13.4833      13.4833      13.4833            0            0            0    329286.22    326810.79    330550.63    330497.23   -8774.8994   -8878.6576    11933.117   -4611.0651 
     135   -4611.6936      13.4833      13.4833      13.4833            0            0            0    329054.16    326702.98    330251.37    330208.13   -8573.9297   -8668.3635    11754.791   -4611.6936 
     136    -4612.302      13.4833      13.4833      13.4833            0            0            0    328481.24    325269.15    330108.53    330066.03   -8775.6425   -8841.1599    11378.286    -4612.302 
     137   -4612.9265      13.4833      13.4833      13.4833            0            0            0    328053.18    324926.48    329637.72    329595.34    -8522.749   -8590.8685    11128.071   -4612.9265 
     138   -4613.4645      13.4833      13.4833      13.4833            0            0            0    327334.07    323377.86    329341.59    329282.75   -8513.5213   -8570.6733    10634.291   -4613.4645 
     139    -4613.833      13.4833      13.4833      13.4833            0            0            0     327394.5    323285.13    329483.31    329415.06   -8189.5263   -8293.4854    9992.3346    -4613.833 
     140   -4613.9345      13.4833      13.4833      13.4833            0            0            0     327522.3    322991.15    329823.44     329752.3   -8045.9216   -8151.6006    9504.4758   -4613.9345 
     141   -4614.0904      13.4833      13.4833      13.4833            0            0            0    327278.97     322255.4    329845.04    329736.48   -8088.3499   -8154.0963    9391.3101   -4614.0904 
     142   -4614.2051      13.4833      13.4833      13.4833            0            0            0    327192.06    322334.51    329711.48    329530.19   -7802.3872   -7866.7418    9066.6435   -4614.2051 
     143    -4614.378      13.4833      13.4833      13.4833            0            0            0    326546.22    321889.39    329086.64    328662.64   -7582.0137   -7513.0487    8222.1541    -4614.378 
     144   -4614.6313      13.4833      13.4833      13.4833            0            0            0    326356.24     322212.2    328843.71    328012.81   -7466.2082   -7295.0476    7629.5865   -4614.6313 
     145   -4614.8888      13.4833      13.4833      13.4833            0            0            0    326605.45    322958.61    329011.15    327846.59   -7313.9269   -7182.0373     7980.078   -4614.8888 
     146   -4615.2755      13.4833      13.4833      13.4833            0            0            0     326391.9    323777.66    328559.68    326838.38   -7636.2453    -7423.712    8201.6441   -4615.2755 
     147   -4615.7729      13.4833      13.4833      13.4833            0            0            0    326129.49    325054.29    327832.24    325501.93   -8239.1162   -7911.1221     8112.253   -4615.7729 
     148   -4616.2608      13.4833      13.4833      13.4833            0            0            0    326484.13    326951.52    327794.75    324706.11   -8624.7525   -8185.8824    8051.7479   -4616.2608 
     149   -4616.8323      13.4833      13.4833      13.4833            0            0            0    327252.27    329044.44    328442.78     324269.6   -8749.8586   -8178.0268    8593.8628   -4616.8323 
     150   -4617.4371      13.4833      13.4833      13.4833            0            0            0    327493.68    330347.22    328777.73     323356.1   -8863.6912   -8341.9727    8696.0985   -4617.4371 
     151   -4617.7866      13.4833      13.4833      13.4833            0            0            0    326985.18     330222.8    328348.83    322383.91    -8884.628   -8546.3679    8498.1226   -4617.7866 
     152   -4618.3069      13.4833      13.4833      13.4833            0            0            0    326733.41    330391.18    328287.09    321521.98   -8874.9114   -8681.9942    8101.9373   -4618.3069 
     153   -4618.7089      13.4833      13.4833      13.4833            0            0            0    326978.41    330749.02    328720.92    321465.28   -8825.4343    -8770.095    8323.4892   -4618.7089 
     154   -4619.1774      13.4833      13.4833      13.4833            0            0            0    326931.44    330823.66    328933.53    321037.13   -8498.5085    -8616.176       7890.6   -4619.1774 
     155   -4619.6154      13.4833      13.4833      13.4833            0            0            0    326518.12     330776.3    328443.67    320334.41   -8118.8748   -8511.2307     7591.252   -4619.6154 
     156   -4620.0924      13.4833      13.4833      13.4833            0            0            0    326022.59    330589.38     327978.8    319499.57   -7582.1548   -8226.7572    6100.6797   -4620.0924 
     157   -4620.6027      13.4833      13.4833      13.4833            0            0            0    326140.07    330874.12    327900.48     319645.6    -7114.277   -8149.7155    5730.6997   -4620.6027 
     158   -4620.9704      13.4833      13.4833      13.4833            0            0            0    325553.38    330100.85    327384.22    319175.07   -6058.5307   -7399.1742    4326.2201   -4620.9704 
     159    -4621.502      13.4833      13.4833      13.4833            0            0            0    324754.37    329198.25    326341.66     318723.2   -4787.5189   -6406.2644    3476.8257    -4621.502 
     160   -4621.6799      13.4833      13.4833      13.4833            0            0            0    325204.37    329770.37    326363.29    319479.43   -4172.9949   -5974.3193    3514.8826   -4621.6799 
     161   -4621.9438      13.4833      13.4833      13.4833            0            0            0    324936.76    329149.64    325755.95    319904.68   -2972.8114   -4791.2233    2339.4874   -4621.9438 
     162   -4622.3302      13.4833      13.4833      13.4833            0            0            0    324538.56     327394.9    325175.39    321045.38   -1485.6191   -3221.0041    2140.3172   -4622.3302 
     163   -4622.5843      13.4833      13.4833      13.4833            0            0            0    324910.25     326937.9    325444.29    322348.57   -729.30538   -2188.0578    2873.0699   -4622.5843 
     164   -4622.8694      13.4833      13.4833      13.4833            0            0            0    324856.86    325849.86     325401.4    323319.33     111.8658   -981.49385    2863.1624   -4622.8694 
     165   -4623.0646      13.4833      13.4833      13.4833            0            0            0    324364.44    325215.25    324894.95    322983.11    189.54778   -842.05378    2179.7833   -4623.0646 
     166   -4623.2858      13.4833      13.4833      13.4833            0            0            0    325044.17    325621.19    325582.67    323928.64   -91.012875   -1011.4787    2377.9401   -4623.2858 
     167   -4623.5708      13.4833      13.4833      13.4833            0            0            0    325108.38    324954.54    325849.93    324520.68   -196.36115   -966.61581    2623.7749   -4623.5708 
     168   -4623.6648      13.4833      13.4833      13.4833            0            0            0    324779.14    324264.89     325618.6    324453.93   -98.293002   -775.37531    2480.8047   -4623.6648 
     169   -4623.7449      13.4833      13.4833      13.4833            0            0            0    324832.83    323890.49    325764.91     324843.1   -226.31246   -702.46463    2874.3467   -4623.7449 
     170   -4623.9326      13.4833      13.4833      13.4833            0            0            0    324493.63    322982.66    325441.61    325056.62   -620.20691     -774.114    2794.6108   -4623.9326 
     171   -4624.0317      13.4833      13.4833      13.4833            0            0            0     324368.4    322548.87       325397    325159.33   -1004.8926   -1122.1439    2608.1097   -4624.0317 
     172   -4624.0998      13.4833      13.4833      13.4833            0            0            0    324241.53    322084.26    325283.94    325356.38   -1273.4936    -1354.533    2565.5738   -4624.0998 
     173   -4624.1854      13.4833      13.4833      13.4833            0            0            0    324093.12    321593.17    325179.87    325506.32   -1301.9011   -1272.2287    2555.3981   -4624.1854 
     174   -4624.2295      13.4833      13.4833      13.4833            0            0            0    323860.08    321151.82    324952.02    325476.39   -1452.9667   -1293.6399    2588.0765   -4624.2295 
     175   -4624.2572      13.4833      13.4833      13.4833            0            0            0    323460.42    320681.88    324441.18    325258.21   -1615.8666   -1358.3777    2662.0719   -4624.2572 
     176   -4624.3016      13.4833      13.4833      13.4833            0            0            0    323132.75    320183.36     324044.1    325170.78   -1823.7467   -1494.0773    2623.7771   -4624.3016 
     177   -4624.4158      13.4833      13.4833      13.4833            0            0            0    322390.66    319226.34    323207.85    324737.79   -1972.8764   -1543.2282    2749.7054   -4624.4158 
     178   -4624.6138      13.4833      13.4833      13.4833            0            0            0    321573.02    318278.79    322330.18     324110.1   -1767.1549   -1429.6481    3178.5578   -4624.6138 
     179    -4624.885      13.4833      13.4833      13.4833            0            0            0    321197.68    317762.71    322168.14    323662.19   -1429.5609   -1382.9729    3511.7099    -4624.885 
     180   -4625.1955      13.4833      13.4833      13.4833            0            0            0    320947.82    317430.69    322068.88     323343.9   -1336.0663   -1555.7679    3436.1133   -4625.1955 
     181   -4625.5826      13.4833      13.4833      13.4833            0            0            0    320366.66    316927.58    321744.64    322427.76   -1262.5458   -1674.9586    3539.4426   -4625.5826 
     182   -4626.0753      13.4833      13.4833      13.4833            0            0            0    319081.84    315823.13    320661.09     320761.3   -1127.1089   -1804.3214    4051.7602   -4626.0753 
     183   -4626.5456      13.4833      13.4833      13.4833            0            0            0    318393.58    315066.82    320402.96    319710.97    -906.5825   -1871.8117    4220.2755   -4626.5456 
     184   -4627.1742      13.4833      13.4833      13.4833            0            0            0    318097.71    314512.66    320690.16    319090.32   -639.85135   -1830.4226    3972.2955   -4627.1742 
     185   -4627.7598      13.4833      13.4833      13.4833            0            0            0    317290.14    313764.18    320365.04    317741.21   -545.28925   -1886.0357    4070.2905   -4627.7598 
     186   -4628.3856      13.4833      13.4833      13.4833            0            0            0    316174.94    312797.27    319683.37    316044.18   -624.94877   -2181.4333    4360.9471   -4628.3856 
     187   -4629.0548      13.4833      13.4833      13.4833            0            0            0    315446.08    312014.64    319462.42    314861.17   -619.73396   -2353.6661    4361.9613   -4629.0548 
     188   -4629.7174      13.4833      13.4833      13.4833            0            0            0     314681.2    311269.76    319151.11    313622.72   -661.09835   -2489.9094    4398.3113   -4629.7174 
     189    -4630.412      13.4833      13.4833      13.4833            0            0            0    313774.92    310484.95    318646.29    312193.53   -979.63035   -2841.0895    4510.2895    -4630.412 
     190   -4631.1736      13.4833      13.4833      13.4833            0            0            0    312959.87    309837.23    318122.21    310920.16   -1297.8744   -3127.0594    4480.5568   -4631.1736 
     191   -4631.9783      13.4833      13.4833      13.4833            0            0            0    311910.01    309169.64    317240.25    309320.14   -2077.5793   -3663.6863    4643.7427   -4631.9783 
     192   -4632.7649      13.4833      13.4833      13.4833            0            0            0    311127.48    308769.32    316446.24    308166.89   -2394.0909   -3906.2823    4563.8624   -4632.7649 
     193    -4633.576      13.4833      13.4833      13.4833            0            0            0    310174.18       308338    315282.24     306902.3   -2991.2541   -4204.5348    4717.7188    -4633.576 
     194   -4634.4671      13.4833      13.4833      13.4833            0            0            0    309158.99    307718.37    314080.82    305677.77   -3030.1416   -4104.8872    4554.1956   -4634.4671 
     195    -4635.325      13.4833      13.4833      13.4833            0            0            0    308241.68     307155.3    312584.61    304985.13   -3229.3795   -4081.6697    4623.8364    -4635.325 
     196   -4636.1195      13.4833      13.4833      13.4833            0            0            0    307300.34    306372.73     311314.4    304213.91   -3043.4849   -3754.5799    4421.6319   -4636.1195 
     197    -4636.856      13.4833      13.4833      13.4833            0            0            0    306467.62    305712.78    309950.23    303739.84   -2832.8691   -3517.9018    4355.6458    -4636.856 
     198   -4637.6044      13.4833      13.4833      13.4833            0            0            0    305540.57    304941.12    308553.22    303127.39    -2662.656     -3183.15      4211.82   -4637.6044 
     199   -4638.3505      13.4833      13.4833      13.4833            0            0            0    304650.82    304275.42    307054.85    302622.18   -2453.9364   -2981.1603    4233.3152   -4638.3505 
     200   -4639.1048      13.4833      13.4833      13.4833            0            0            0    303702.58    303532.12    305617.41    301958.22   -2373.5897   -2710.3321     4095.294   -4639.1048 
     201   -4639.8331      13.4833      13.4833      13.4833            0            0            0    302843.12    302958.21    304163.41    301407.73    -2273.467   -2601.3125    4166.6694   -4639.8331 
     202   -4640.5434      13.4833      13.4833      13.4833            0            0            0    301900.21    302247.19    302810.33     300643.1   -2356.0569   -2481.1553    3973.4746   -4640.5434 
     203   -4641.1855      13.4833      13.4833      13.4833            0            0            0       301221    301903.56     301577.2    300182.24   -2364.8378   -2542.5564    4073.1259   -4641.1855 
     204   -4641.8079      13.4833      13.4833      13.4833            0            0            0    300240.84    301130.27    300338.72    299253.54   -2627.1179   -2727.7344     3700.615   -4641.8079 
     205   -4642.3489      13.4833      13.4833      13.4833            0            0            0    299771.44    300967.39     299489.7    298857.25   -2811.1654   -3004.7835     3605.651   -4642.3489 
     206   -4642.7121      13.4833      13.4833      13.4833            0            0            0    298972.54     300316.9    298564.29    298036.42    -3156.684   -3429.3374     3184.032   -4642.7121 
     207    -4642.969      13.4833      13.4833      13.4833            0            0            0    299019.06    300587.03    298369.09    298101.06   -3285.3915   -3515.2921    3038.0059    -4642.969 
     208   -4643.0297      13.4833      13.4833      13.4833            0            0            0    298889.39    300469.61    298196.53    298002.04   -3333.6549   -3528.5111    2886.1615   -4643.0297 
     209   -4643.0658      13.4833      13.4833      13.4833            0            0            0     299099.9    300773.63    298287.45    298238.62   -3226.9888   -3323.1829    2785.0716   -4643.0658 
     210   -4643.0938      13.4833      13.4833      13.4833            0            0            0     298984.9    300622.46    298157.88    298174.36    -3257.797   -3338.7247    2638.5213   -4643.0938 
     211   -4643.1088      13.4833      13.4833      13.4833            0            0            0    299058.74    300747.26    298188.28    298240.67   -3160.4663   -3192.5225    2598.6028   -4643.1088 
     212   -4643.1173      13.4833      13.4833      13.4833            0            0            0    298979.93    300656.49    298110.26    298173.03   -3176.0424   -3198.6205    2560.5833   -4643.1173 
     213   -4643.1215      13.4833      13.4833      13.4833            0            0            0    298969.66     300686.8    298089.01    298133.16   -3110.4093   -3130.9721    2578.0473   -4643.1215 
     214   -4643.1241      13.4833      13.4833      13.4833            0            0            0    298913.89    300638.04    298026.64    298076.98   -3116.3681   -3115.6871    2538.3641   -4643.1241 
     215   -4643.1255      13.4833      13.4833      13.4833            0            0            0    298902.16    300648.15    298012.45     298045.9   -3074.9499   -3074.3803    2545.6568   -4643.1255 
     216   -4643.1264      13.4833      13.4833      13.4833            0            0            0    298873.39    300617.91    297987.03    298015.22   -3079.9382    -3059.663    2511.4261   -4643.1264 
     217   -4643.1269      13.4833      13.4833      13.4833            0            0            0    298880.23    300626.71    297999.31    298014.67   -3055.0354   -3040.6032    2513.2054   -4643.1269 
     218   -4643.1273      13.4833      13.4833      13.4833            0            0            0    298866.35    300601.28    297992.76    298005.01   -3051.4829   -3037.8748    2490.6591   -4643.1273 
     219   -4643.1274      13.4833      13.4833      13.4833            0            0            0    298878.92    300608.97    298011.36    298016.42   -3031.9634   -3025.5511    2488.6847   -4643.1274 
     220   -4643.1276      13.4833      13.4833      13.4833            0            0            0    298872.41    300588.22    298015.34    298013.67   -3025.0505   -3024.6232    2475.5371   -4643.1276 
     221   -4643.1277      13.4833      13.4833      13.4833            0            0            0    298882.44    300590.59       298030    298026.74   -3011.9707   -3011.6888    2470.9885   -4643.1277 
     222   -4643.1278      13.4833      13.4833      13.4833            0            0            0    298877.53    300572.67    298031.56    298028.36   -3005.9398   -3007.5784    2460.5855   -4643.1278 
     223   -4643.1279      13.4833      13.4833      13.4833            0            0            0    298883.11    300572.95     298038.5    298037.88   -2994.4857   -2994.2028    2453.2462   -4643.1279 
     224   -4643.1279      13.4833      13.4833      13.4833            0            0            0     298878.4    300560.61    298036.92    298037.68   -2987.1494   -2989.0253    2446.7418   -4643.1279 
     225   -4643.1279      13.4833      13.4833      13.4833            0            0            0     298878.1    300557.25    298037.59    298039.46   -2977.9586   -2979.8206    2441.3513   -4643.1279 
     226   -4643.1279      13.4833      13.4833      13.4833            0            0            0    298873.92    300549.42    298035.45     298036.9   -2973.1356   -2975.2809    2436.0527   -4643.1279 
     227   -4643.1279      13.4833      13.4833      13.4833            0            0            0    298872.87     300546.7     298035.6     298036.3   -2968.0982   -2970.3755    2433.3188   -4643.1279 
     228   -4643.1279      13.4833      13.4833      13.4833            0            0            0    298869.84    300542.62    298033.07    298033.83   -2965.8304   -2967.5613    2429.7861   -4643.1279 
     229   -4643.1279      13.4833      13.4833      13.4833            0            0            0    298869.61     300542.4    298032.83     298033.6   -2962.7745   -2964.6754    2428.8427   -4643.1279 
     230   -4643.1279      13.4833      13.4833      13.4833            0            0            0    298867.47    300539.86    298030.79    298031.76      -2961.4   -2962.3136     2426.776   -4643.1279 
     231    -4643.128      13.4833      13.4833      13.4833            0            0            0    298868.42    300540.75    298031.93    298032.57   -2959.4021   -2959.8074     2426.641    -4643.128 
     232    -4643.128      13.4833      13.4833      13.4833            0            0            0    298868.42    300540.75    298031.93    298032.57   -2959.4021   -2959.8074     2426.641    -4643.128 
Loop time of 3.19869 on 1 procs for 232 steps with 216 atoms

Minimization stats:
  Stopping criterion = linesearch alpha is zero
  Energy initial, next-to-last, final = 
        -4498.77953974     -4643.12796967     -4643.12796967
  Force two-norm initial, final = 60.4229 0.00712942
  Force max component initial, final = 10.7931 0.000914719
  Final line search alpha, max atom move = 0.000244141 2.2332e-07
  Iterations, force evaluations = 232 400

Pair  time (%) = 1.4853 (46.4348)
Kspce time (%) = 1.56105 (48.8028)
Neigh time (%) = 0.115103 (3.59846)
Comm  time (%) = 0.0189595 (0.592728)
Outpt time (%) = 0.0118396 (0.37014)
Other time (%) = 0.00643158 (0.201069)

Nlocal:    216 ave 216 max 216 min
Histogram: 1 0 0 0 0 0 0 0 0 0
Nghost:    3632 ave 3632 max 3632 min
Histogram: 1 0 0 0 0 0 0 0 0 0
Neighs:    51157 ave 51157 max 51157 min
Histogram: 1 0 0 0 0 0 0 0 0 0

Total # of neighbors = 51157
Ave neighs/atom = 236.838
Neighbor list builds = 35
Dangerous builds = 0


variable natoms equal "count(all)"
variable tot_energy equal "c_eatoms"
variable length_x equal "lx"
variable length_y equal "ly"
variable length_z equal "lz"
variable tilt_xy equal "xy"
variable tilt_xz equal "xz"
variable tilt_yz equal "yz"
variable ecoh equal "pe/atoms"
variable press_t equal "press"
variable press_xx equal "pxx"
variable press_yy equal "pyy"
variable press_zz equal "pzz"
variable press_xy equal "pxy"
variable press_xz equal "pxz"
variable press_yz equal "pyz"
#variable ecoh equal "v_etotal/v_atoms"
# --- output
print "pyPosMat output section"
pyPosMat output section
print "tot_energy = ${tot_energy}"
tot_energy = -4643.12796967183
print "num_atoms = ${natoms}"
num_atoms = 216
print "xx = ${length_x}"
xx = 13.4833
print "yy = ${length_y}"
yy = 13.4833
print "zz = ${length_z}"
zz = 13.4833
print "xy = ${tilt_xy}"
xy = 0
print "xz = ${tilt_xz}"
xz = 0
print "yz = ${tilt_yz}"
yz = 0
print "pressure_total = ${press_t}"
pressure_total = 298868.417852586
print "press_xx = ${press_xx}"
press_xx = 300540.74982754
print "press_yy = ${press_yy}"
press_yy = 298031.930793254
print "press_zz = ${press_zz}"
press_zz = 298032.572936964
print "press_xy = ${press_xy}"
press_xy = -2959.40207077625
print "press_xz = ${press_xz}"
press_xz = -2959.80738142621
print "press_yz = ${press_yz}"
press_yz = 2426.6409541037

print "ecoh = ${ecoh}"
ecoh = -21.4959628225548
print "lammps_sim_done"
lammps_sim_done
